# HZ S RI R 50
1000000000 0.04062023150123272 0.051329417027545926 0.12525813698924249 -0.08113173935562842 0 0 0 0
1002481390 0.04218829792098093 0.05155470027450555 0.12334607568945848 -0.08461764071957924 0 0 0 0
1004962780 0.042074881040676776 0.053323788803127874 0.12304401394910089 -0.08432591315452852 0 0 0 0
1007444170 0.04177265129629173 0.05134891498857667 0.12177551292843793 -0.08659745226217079 0 0 0 0
1009925560 0.041992256192531864 0.051760903233912796 0.12039744214619459 -0.08867289906102112 0 0 0 0
1012406950 0.042413827052657976 0.05233877862597936 0.11859097769739069 -0.09079716002427927 0 0 0 0
1014888340 0.04225469228242938 0.053439462506467666 0.11943209530792834 -0.08992503882493155 0 0 0 0
1017369730 0.0422726070038599 0.05369945178002551 0.11825077415075631 -0.09171686848809875 0 0 0 0
1019851120 0.04287171275791243 0.052256073596867056 0.11793604004925068 -0.09212358864209806 0 0 0 0
1022332510 0.042443005781018166 0.05383834382919872 0.11662924109002133 -0.09338947636147553 0 0 0 0
1024813900 0.04322631747743298 0.05261788419604887 0.11563268712290231 -0.09454249783716424 0 0 0 0
1027295290 0.0432347678300785 0.054152661306230726 0.1148112116668238 -0.09565564855964143 0 0 0 0
1029776680 0.043130865715007995 0.05303130722793574 0.1139218815418621 -0.09659968468785239 0 0 0 0
1032258070 0.04304326991929501 0.05297055080593242 0.11232610209121356 -0.09845146927968854 0 0 0 0
1034739460 0.04323153520494389 0.05313798091106032 0.11203894130304755 -0.09874012693389747 0 0 0 0
1037220850 0.04391336317568597 0.0545373704350561 0.10995707009420637 -0.1013991823068341 0 0 0 0
1039702240 0.044335982563357745 0.05379420913276705 0.11111982188035004 -0.10019194268208699 0 0 0 0
1042183630 0.04423546502421347 0.05404702144035514 0.11008278999298093 -0.10105822906124293 0 0 0 0
1044665020 0.04413072501229762 0.05416785805754711 0.10959103786442044 -0.10149501420461683 0 0 0 0
1047146410 0.04385219121037831 0.05569812105494393 0.10724902387398148 -0.10444909072066029 0 0 0 0
1049627800 0.044541131892895394 0.05507066784164564 0.1068859195951104 -0.10434637243864452 0 0 0 0
1052109190 0.04492402324153725 0.053739213672905434 0.10653576133752309 -0.10529420649434076 0 0 0 0
1054590580 0.04442792064194151 0.05443326742155451 0.10572970355581361 -0.1059966455792676 0 0 0 0
1057071970 0.0451785139441323 0.05432770116606955 0.10474995578996175 -0.10662105473489548 0 0 0 0
1059553360 0.04502139990345785 0.05506691942115979 0.10384590777738115 -0.10717531037329354 0 0 0 0
1062034750 0.04533145260496448 0.05532867013262229 0.1017167457002332 -0.11003610199564244 0 0 0 0
1064516140 0.04524024153352135 0.05559425373021405 0.10208803887478377 -0.10961086696847848 0 0 0 0
1066997530 0.045391777148060544 0.05584485638140444 0.10137340661578674 -0.10956163197004984 0 0 0 0
1069478920 0.04580143036194796 0.05457463247991704 0.09950048279895221 -0.11170304095195145 0 0 0 0
1071960310 0.04588589829809449 0.05563449886643 0.09767386805402326 -0.11318911510137797 0 0 0 0
1074441700 0.04498539983051954 0.056388752826188625 0.09751502510387383 -0.11354308476244113 0 0 0 0
1076923090 0.04614470893019671 0.055557229550226024 0.09675673147292242 -0.1136016733375016 0 0 0 0
1079404480 0.047414029769355416 0.05518781029270543 0.09524423372069918 -0.1155108495092164 0 0 0 0
1081885870 0.04659578626953757 0.05591979595740102 0.09332275191254119 -0.11633623041778114 0 0 0 0
1084367260 0.04718117848899531 0.05543398222482384 0.09249785088544124 -0.11758267899133268 0 0 0 0
1086848650 0.04759858568581132 0.054703025377849636 0.09297555528516006 -0.11706620643524868 0 0 0 0
1089330040 0.04694336255270238 0.05618662265886749 0.0897677368457925 -0.11912978865896497 0 0 0 0
1091811430 0.049385925057614216 0.054275804947002335 0.08959813969479476 -0.11938479257445969 0 0 0 0
1094292820 0.04854213329255925 0.05493150950345277 0.08733826742989059 -0.12145311342968744 0 0 0 0
1096774210 0.04833378050899485 0.05531613767963729 0.0879814793459834 -0.12083130696480893 0 0 0 0
1099255600 0.04896249363160675 0.05525937332368887 0.08569602001960547 -0.12241157958138767 0 0 0 0
1101736990 0.048995148467101804 0.05538893990259 0.08500418258636346 -0.12248754225451726 0 0 0 0
1104218380 0.04871915038524772 0.05516065539372474 0.08443604912719058 -0.12207836299096433 0 0 0 0
1106699770 0.04946234569152689 0.05540585143340535 0.08387052005211286 -0.12366662168632743 0 0 0 0
1109181160 0.05179760159638106 0.05333820478983349 0.0826169425900619 -0.12392524578100435 0 0 0 0
1111662550 0.05128106639886347 0.05426658897118168 0.08088226941970812 -0.1247636925960169 0 0 0 0
1114143940 0.04965459703441334 0.05486850659691429 0.08242029503727263 -0.12413320942975715 0 0 0 0
1116625330 0.05175083992827323 0.054469638152085526 0.0784748282151275 -0.12638060938226697 0 0 0 0
1119106720 0.04942697458776298 0.05554829348181548 0.0778496912315548 -0.12814454864064195 0 0 0 0
1121588110 0.05273085078533676 0.0534757812701558 0.07605933023730459 -0.12781400799822717 0 0 0 0
1124069500 0.05143903239503477 0.05449886622871772 0.07492437573019091 -0.12887573511514855 0 0 0 0
1126550890 0.05429521199085401 0.05296348284024166 0.07285449798000036 -0.12972684184228714 0 0 0 0
1129032280 0.05286920519606774 0.05389072370678148 0.07138631812217017 -0.13067728613942692 0 0 0 0
1131513670 0.05299526540592664 0.05317489100586006 0.07038078898245058 -0.13061141271535912 0 0 0 0
1133995060 0.05272102884934503 0.054130299046161165 0.07059571717801193 -0.1302625562536881 0 0 0 0
1136476450 0.052964909269129265 0.0531573012744748 0.07037355169394058 -0.13095507720984628 0 0 0 0
1138957840 0.054479336479988615 0.05280607012128637 0.06759480151065911 -0.131953817805885 0 0 0 0
1141439230 0.05445965489130947 0.053875538003009864 0.06773366521753674 -0.1326717614596777 0 0 0 0
1143920620 0.054727299266564375 0.05289110245804931 0.06498581138367575 -0.13328775535526205 0 0 0 0
1146402010 0.055457143047566326 0.05333498608591519 0.06686846300253114 -0.13198946632128716 0 0 0 0
1148883400 0.053061175417207944 0.053130777286813244 0.06428774440799681 -0.13409315865492197 0 0 0 0
1151364790 0.0539796125914 0.05276237758566114 0.06346249959323014 -0.1336799311963077 0 0 0 0
1153846180 0.053621697711399754 0.05251943575660442 0.05983673310643343 -0.13550255172321155 0 0 0 0
1156327570 0.0548569689515855 0.0525659880850299 0.05930824660359484 -0.13537738602607802 0 0 0 0
1158808960 0.055440272377300114 0.05282889429802999 0.059393455933403005 -0.13543325222579503 0 0 0 0
1161290350 0.05410152504124644 0.052330417224430825 0.055991148787156574 -0.1368038271749164 0 0 0 0
1163771740 0.05475451086854506 0.05177498629088894 0.05675190053909612 -0.13669555821124282 0 0 0 0
1166253130 0.056643529881343545 0.05202117893939573 0.05445948353068258 -0.13770294874905262 0 0 0 0
1168734520 0.056368114701632305 0.05136279479150839 0.05527018011189885 -0.13773566876597657 0 0 0 0
1171215910 0.05367323744331908 0.050771091284462694 0.051567976393157494 -0.13830572089566504 0 0 0 0
1173697300 0.057566035202984644 0.05138301590748578 0.05045804209543682 -0.1391886267366695 0 0 0 0
1176178690 0.05771213044563121 0.05155209979523696 0.05304298963051007 -0.13743149337626734 0 0 0 0
1178660080 0.05710365096589856 0.04996685971195548 0.04816266967370883 -0.13967186928143882 0 0 0 0
1181141470 0.05573707454124451 0.049876868553528075 0.04920547174850238 -0.13913795682270672 0 0 0 0
1183622860 0.05805461363403168 0.051050695803715504 0.04637433123877966 -0.14003861353906774 0 0 0 0
1186104250 0.05803400210067761 0.050328132568229725 0.046895457140259486 -0.1394332668291871 0 0 0 0
1188585640 0.055883784902460126 0.04883483289000939 0.04395074572388007 -0.13956995909572062 0 0 0 0
1191067030 0.056638589906102356 0.04935424741271333 0.04315893639437156 -0.14098136295532057 0 0 0 0
1193548420 0.05730748328332839 0.04915309382266924 0.0410864415799977 -0.14151509588884523 0 0 0 0
1196029810 0.06045969445648875 0.05081821540590292 0.04165092642495094 -0.1414239816355798 0 0 0 0
1198511200 0.058432327071832775 0.04838501267306783 0.03835108822870534 -0.14219928230485332 0 0 0 0
1200992590 0.05933434366026536 0.048770508513225355 0.03628111748690505 -0.1426539182003501 0 0 0 0
1203473980 0.058571369002558264 0.04837434920361039 0.035297013603011344 -0.1425333781354438 0 0 0 0
1205955370 0.0587555450951659 0.0478264108477804 0.03738899580270446 -0.14241094026416606 0 0 0 0
1208436760 0.06052002054489632 0.04911124703560299 0.03397630397580354 -0.14275835122011338 0 0 0 0
1210918150 0.05981286011699806 0.047936076075326114 0.033043618367095066 -0.14325215791737214 0 0 0 0
1213399540 0.05913802080302855 0.04774600533346289 0.03324314642570652 -0.14316435655770818 0 0 0 0
1215880930 0.05943973076646065 0.04638288736245533 0.03018979020422271 -0.14381151676013276 0 0 0 0
1218362320 0.062230739943540815 0.04896357290951412 0.02961954232338827 -0.14410014612594924 0 0 0 0
1220843710 0.05943997378443072 0.04655175969382333 0.029586139567851433 -0.14351838172174464 0 0 0 0
1223325100 0.06060620703405828 0.04553449159444132 0.025819336483255535 -0.14484082393662073 0 0 0 0
1225806490 0.06258900435968737 0.04834466227081916 0.02739141579751832 -0.1444234488765878 0 0 0 0
1228287880 0.060685691945847546 0.0466648460417848 0.024236734784803118 -0.1447016410900025 0 0 0 0
1230769270 0.0599157702576741 0.0436634276525487 0.02203666669056593 -0.14482508240037695 0 0 0 0
1233250660 0.061419805917499855 0.04590393331523969 0.0232436192801671 -0.14460569038217044 0 0 0 0
1235732050 0.06088475630757638 0.04170235435594002 0.021219085962997552 -0.14561227212948363 0 0 0 0
1238213440 0.06262296387389624 0.04627237550594032 0.020242473097750648 -0.14515021726827385 0 0 0 0
1240694830 0.06161695140447532 0.043359549418722866 0.019683788043476966 -0.14582132370159104 0 0 0 0
1243176220 0.061827186366880144 0.04222379913225148 0.018091823766465252 -0.14552962585625073 0 0 0 0
1245657610 0.06236967763075082 0.04238568966142626 0.015016321524898206 -0.14560073893259695 0 0 0 0
1248139000 0.06270247020345388 0.04487398484243923 0.014974145129296334 -0.145700379456257 0 0 0 0
1250620390 0.06274167950423692 0.0427796366826534 0.01460037939039855 -0.14544685174076552 0 0 0 0
1253101780 0.06257472976864852 0.0372506053575837 0.012672344892448504 -0.1450868974288065 0 0 0 0
1255583170 0.06207656103575847 0.040129524705860634 0.011502949007166205 -0.14593505094091236 0 0 0 0
1258064560 0.06188747703340985 0.04026865085715798 0.009470821047993058 -0.14600533956419695 0 0 0 0
1260545950 0.0629582070115065 0.040977438923273726 0.008761946613253153 -0.1457910823596387 0 0 0 0
1263027340 0.06258831000057176 0.037419510376721 0.007788627584092162 -0.1456791077806936 0 0 0 0
1265508730 0.06320196648432234 0.03994796066518425 0.004189646827845894 -0.1455004695386092 0 0 0 0
1267990120 0.06306099092463767 0.03799735134622099 0.0043020752562442375 -0.14590972985741954 0 0 0 0
1270471510 0.06328377195945181 0.03951900404332904 0.0025111779464818376 -0.1452609072313965 0 0 0 0
1272952900 0.06354018364277911 0.03797993189303263 0.0008931424932778246 -0.1453225948155605 0 0 0 0
1275434290 0.06404518904964038 0.0346620146932328 0.000444401990574239 -0.1458389276803477 0 0 0 0
1277915680 0.06363729838894544 0.03750019195409128 -0.00021300193258419703 -0.14505900419237766 0 0 0 0
1280397070 0.06339248379816952 0.036796837485536235 -0.0019917076197652757 -0.14577714313142495 0 0 0 0
1282878460 0.0641894518558467 0.03473257990314667 -0.0030985519630161882 -0.14551790880643437 0 0 0 0
1285359850 0.06284178965745504 0.037444682708798374 -0.0015568383709453903 -0.1451982790882072 0 0 0 0
1287841240 0.06443456964340945 0.034583957526177114 -0.0036318246988812784 -0.14417858052769658 0 0 0 0
1290322630 0.06403425273058787 0.035039741090560246 -0.006123623089080602 -0.14453041612483028 0 0 0 0
1292804020 0.06433254861670985 0.033836171689654734 -0.007061409868427933 -0.14463936077187772 0 0 0 0
1295285410 0.06372207782806887 0.03442965352357299 -0.00961985106011025 -0.14467329795640263 0 0 0 0
1297766800 0.06524051978388881 0.03028952018178141 -0.011745884158735889 -0.14476181397933766 0 0 0 0
1300248190 0.06484018459504327 0.03191774067947327 -0.009890469902239732 -0.1442883431537587 0 0 0 0
1302729580 0.06448913327951422 0.03313232831329789 -0.012825208233842181 -0.1444052009267642 0 0 0 0
1305210970 0.06386209793512214 0.03206733292390599 -0.013019055029780647 -0.14441490469260262 0 0 0 0
1307692360 0.06470227374034078 0.029829603907575372 -0.014344748587538066 -0.1437523964260254 0 0 0 0
1310173750 0.06615639725418203 0.029209784584184023 -0.017323021055190346 -0.14368892447729914 0 0 0 0
1312655140 0.06632805421883399 0.02731215669723207 -0.016933575160900615 -0.14389512292370243 0 0 0 0
1315136530 0.06433705454169605 0.030402702619029345 -0.016488848966086316 -0.14399266318427473 0 0 0 0
1317617920 0.06570894883119792 0.028523663199186058 -0.019554233441073092 -0.1434725774314809 0 0 0 0
1320099310 0.0655145327553887 0.027289473060455354 -0.021087573156945393 -0.14281397827991174 0 0 0 0
1322580700 0.06455583242353992 0.026952254260226502 -0.022323931766023587 -0.14304608045736542 0 0 0 0
1325062090 0.06418844535704632 0.026199840267567446 -0.022756103756839355 -0.1428502441462885 0 0 0 0
1327543480 0.0656927886764361 0.025735189289098084 -0.02681183412785535 -0.14186178497671717 0 0 0 0
1330024870 0.06416927647677288 0.026067331178690076 -0.023796023876564158 -0.14212634075841288 0 0 0 0
1332506260 0.06625682295964569 0.024460666697652837 -0.026145862403147254 -0.14215752029492615 0 0 0 0
1334987650 0.06596766886000238 0.024689437253188742 -0.027557259655123817 -0.1414679480268269 0 0 0 0
1337469040 0.06702548523142043 0.022178259153825618 -0.03051207797976909 -0.14043613199784444 0 0 0 0
1339950430 0.062186136243642096 0.02543644259537034 -0.029379468709397446 -0.14051384135233874 0 0 0 0
1342431820 0.0618507509278932 0.024408199984275562 -0.030799915837543494 -0.1406166707541312 0 0 0 0
1344913210 0.06528411322078256 0.021896948549212987 -0.03417823538188135 -0.13971399938782886 0 0 0 0
1347394600 0.06448188677561682 0.02138492600742211 -0.034989293155883755 -0.13961845567039452 0 0 0 0
1349875990 0.06380277515914497 0.020547098534788723 -0.03582319436953961 -0.13877059793011437 0 0 0 0
1352357380 0.06168248263113964 0.02116287582068957 -0.03365007343075081 -0.1393329652348669 0 0 0 0
1354838770 0.0649295881799243 0.01818143139397292 -0.03846988225662321 -0.13713130564682058 0 0 0 0
1357320160 0.06550602882362538 0.017677952676616204 -0.039842912416175214 -0.13782087260037545 0 0 0 0
1359801550 0.06983423821862113 0.015263617427038205 -0.04095350984561339 -0.13646022207503453 0 0 0 0
1362282940 0.06377710349192289 0.01654018440666989 -0.03963645812852995 -0.13626276808911805 0 0 0 0
1364764330 0.06400329345912681 0.01688526983153955 -0.0420337447130592 -0.13633594610510527 0 0 0 0
1367245720 0.06322484594686582 0.014784211503118577 -0.044510356987384245 -0.13574140066870036 0 0 0 0
1369727110 0.06242983928612589 0.015017153428566495 -0.042351589216149975 -0.1362107535540484 0 0 0 0
1372208500 0.06583020398727754 0.013045686182699525 -0.046422731606517116 -0.134151366368862 0 0 0 0
1374689890 0.06540359110802231 0.012775026185292023 -0.04538771475449992 -0.13459951960554345 0 0 0 0
1377171280 0.06333716200623894 0.012555612766283641 -0.048935655105311546 -0.13303070527873367 0 0 0 0
1379652670 0.06059612549000209 0.012124902173207296 -0.04919076846666433 -0.13323872737275935 0 0 0 0
1382134060 0.06323336884313413 0.011470970226341227 -0.04858365341808428 -0.1334406451166293 0 0 0 0
1384615450 0.05985691386913697 0.012324306855757552 -0.04682490283765268 -0.133676566741224 0 0 0 0
1387096840 0.06015018462311952 0.010077556990552738 -0.047616926814071876 -0.1327209915997463 0 0 0 0
1389578230 0.06513424267496677 0.009088803808962589 -0.05219166776840395 -0.13097880120433564 0 0 0 0
1392059620 0.05944462985337181 0.008839224141719984 -0.05202865090036615 -0.1315914857825792 0 0 0 0
1394541010 0.0591980981083595 0.00872841435984623 -0.05315290780970266 -0.13065400766259092 0 0 0 0
1397022400 0.0634019567405769 0.008187912715695586 -0.055802124446648796 -0.12910473205004258 0 0 0 0
1399503790 0.060613667148529095 0.006936021374999508 -0.055346623076407815 -0.12943469269358307 0 0 0 0
1401985180 0.06362282891733051 0.00788977846248518 -0.05743546328345773 -0.1286188656011718 0 0 0 0
1404466570 0.06011528825882293 0.005989794831277714 -0.057209898572700445 -0.1286598258217676 0 0 0 0
1406947960 0.06220523473701013 0.005090724739497026 -0.0589984613422241 -0.1275500631584823 0 0 0 0
1409429350 0.057348950523552204 0.004180450610353926 -0.05761971452425695 -0.1278517508932134 0 0 0 0
1411910740 0.05559118273463317 0.0022061930141154206 -0.06070044700528293 -0.1263817139314002 0 0 0 0
1414392130 0.061425984973263445 0.005562127249138312 -0.059138154652354905 -0.1273127332238745 0 0 0 0
1416873520 0.057197804000816 0.001736678305289862 -0.06258994532289566 -0.12464637121425383 0 0 0 0
1419354910 0.057474372381059013 0.0004319187294243828 -0.06413481391088979 -0.12423063612359304 0 0 0 0
1421836300 0.05818699597512629 0.0026123075715515373 -0.061849364149839034 -0.12496719955356823 0 0 0 0
1424317690 0.05801113714472228 0.002414471785901544 -0.06298994384427427 -0.12413645834556429 0 0 0 0
1426799080 0.058083118227966586 0.001516597518878454 -0.06463975091589597 -0.12363352158361887 0 0 0 0
1429280470 0.057773428997569584 0.0033391996783757693 -0.06475916731525233 -0.12245198830305658 0 0 0 0
1431761860 0.05385973966520925 -0.0019631524537074133 -0.06792123839678553 -0.12067745843618218 0 0 0 0
1434243250 0.05417603269781861 -0.0019464601511765226 -0.06852446240143047 -0.12106202982633305 0 0 0 0
1436724640 0.05408360211239529 -0.0021266037745781056 -0.06881430505485492 -0.12028285228261135 0 0 0 0
1439206030 0.052531630088056336 -0.003477146418556472 -0.06916200604328895 -0.12038446595521556 0 0 0 0
1441687420 0.050815041534446444 -0.005845103439743781 -0.07009876683009418 -0.11937339975063091 0 0 0 0
1444168810 0.05317767278348326 -0.002856196672010652 -0.06806287044877073 -0.12094706822892723 0 0 0 0
1446650200 0.052514015307720145 -0.0017958859325162332 -0.07075648213070382 -0.11956793521616059 0 0 0 0
1449131590 0.05215215754432741 -0.002777187789592246 -0.07207520125161658 -0.11843520378609038 0 0 0 0
1451612980 0.05418977147710893 -0.0006146480338193749 -0.07431881537464684 -0.11678042098946584 0 0 0 0
1454094370 0.04922669945006039 -0.006838295868159785 -0.07303440254259462 -0.11752497272044479 0 0 0 0
1456575760 0.050134810268743474 -0.0051224448778776 -0.07215351296372755 -0.11802218616610273 0 0 0 0
1459057150 0.05047177480020264 -0.0034166059368451952 -0.07376725162557878 -0.11720099844587052 0 0 0 0
1461538540 0.05009499717420821 -0.0026507656582680276 -0.07684035236258309 -0.11514629110196432 0 0 0 0
1464019930 0.04707480844566457 -0.007067151750268431 -0.07479950222348558 -0.11681865814342104 0 0 0 0
1466501320 0.04926630004384919 -0.003476336357249041 -0.07940467228302386 -0.11342716601489482 0 0 0 0
1468982710 0.046331268248856396 -0.00801262562639493 -0.07825952479416236 -0.11407354698443267 0 0 0 0
1471464100 0.04682058815796721 -0.00384772686162502 -0.0797663876950851 -0.11290693603341097 0 0 0 0
1473945490 0.04423070419439682 -0.011393805586928152 -0.0794235001863807 -0.11351814810643139 0 0 0 0
1476426880 0.04582742437787879 -0.004917954632441397 -0.08211614602750104 -0.1111204387506737 0 0 0 0
1478908270 0.04516991710797897 -0.004849854125180378 -0.08010938486001093 -0.1125915708195812 0 0 0 0
1481389660 0.04366843063454967 -0.007250359959726093 -0.08236091839052684 -0.11073537922329882 0 0 0 0
1483871050 0.04268069254454932 -0.008646080607489167 -0.08179595846238136 -0.11176996214722124 0 0 0 0
1486352440 0.043588225183428995 -0.00902147694790224 -0.0852006537990624 -0.108983109991424 0 0 0 0
1488833830 0.04251512958106743 -0.007621807498490769 -0.08623401348551392 -0.10855809069806335 0 0 0 0
1491315220 0.04180605164432319 -0.007416393438158028 -0.0842623249359239 -0.11051425327129562 0 0 0 0
1493796610 0.040148263036342294 -0.008917659929991675 -0.0870068160449611 -0.10785951742030742 0 0 0 0
1496278000 0.04042924427451994 -0.012783069448725223 -0.08625621882784525 -0.10891285971996338 0 0 0 0
1498759390 0.040445888169418256 -0.00811014579622046 -0.08815847746788129 -0.10772893543135185 0 0 0 0
1501240780 0.03829085030439656 -0.013336352644615723 -0.08795993682723922 -0.10743703061472754 0 0 0 0
1503722170 0.039218320724040065 -0.011557722458580028 -0.0903546778882973 -0.10564097955032004 0 0 0 0
1506203560 0.036453969577876194 -0.007369667686214287 -0.08875884198028279 -0.1080405765859117 0 0 0 0
1508684950 0.03670506418105638 -0.006094228738764695 -0.09134762554420114 -0.10514270831033024 0 0 0 0
1511166340 0.036353324428641504 -0.009185552873371264 -0.09050130464065877 -0.10608734856639564 0 0 0 0
1513647730 0.036483622320539935 -0.011051307059196649 -0.09290635088270487 -0.10407110300395905 0 0 0 0
1516129120 0.035958933585294756 -0.010491479708708493 -0.0919298338216074 -0.10512627001353782 0 0 0 0
1518610510 0.035590865612572756 -0.010505501317642468 -0.09515983958069366 -0.10079340460605313 0 0 0 0
1521091900 0.03560381800297272 -0.011169432837473544 -0.09494283463828461 -0.10282443316849524 0 0 0 0
1523573290 0.03556552580226828 -0.011749335575450147 -0.09682591395445797 -0.10106156176846684 0 0 0 0
1526054680 0.03408206982183917 -0.012722565580103831 -0.09618660599232023 -0.1019012906755662 0 0 0 0
1528536070 0.032759792915681527 -0.00985978125770206 -0.09862287632316312 -0.10070110298865874 0 0 0 0
1531017460 0.032718515780880475 -0.010636475397689556 -0.09777848508175613 -0.10043973534935831 0 0 0 0
1533498850 0.03360450109551864 -0.012741566963061418 -0.09941740587049003 -0.09922423908692589 0 0 0 0
1535980240 0.03281875051221666 -0.01167594935283746 -0.10015595074200452 -0.10176187095238341 0 0 0 0
1538461630 0.03204328224643103 -0.01245737343493963 -0.10235192156239632 -0.09635579011639209 0 0 0 0
1540943020 0.031313340966752444 -0.012873494838515862 -0.10012883500024354 -0.09931558560141564 0 0 0 0
1543424410 0.03063014114489655 -0.01275078285172135 -0.10049654254241858 -0.09849244039601707 0 0 0 0
1545905800 0.029637351763779875 -0.00979420085932754 -0.10442177061427436 -0.09558609496218241 0 0 0 0
1548387190 0.027665849521130013 -0.011204254509831162 -0.10348921367816184 -0.09590645037199307 0 0 0 0
1550868580 0.0306503944612124 -0.012368583249273155 -0.10655375984334466 -0.09317648535972849 0 0 0 0
1553349970 0.02698146595755229 -0.011086653170308604 -0.10751608332124943 -0.09172647998470414 0 0 0 0
1555831360 0.02965006328174339 -0.013045177769341144 -0.10712557257828592 -0.09245113421978737 0 0 0 0
1558312750 0.027328394341901353 -0.010758337704307829 -0.10763098298384159 -0.09300603018301302 0 0 0 0
1560794140 0.02953799929172521 -0.013041010456122182 -0.10751765897654829 -0.09259622132440526 0 0 0 0
1563275530 0.027606254258964888 -0.012841146702014394 -0.10890438734734939 -0.09130324156433635 0 0 0 0
1565756920 0.025751182450034403 -0.011476581909339605 -0.11126762918671644 -0.08917852833114581 0 0 0 0
1568238310 0.02385513786918345 -0.010646636072491137 -0.10953125790558968 -0.0914887400916156 0 0 0 0
1570719700 0.02290699463681074 -0.011179400581897802 -0.11095518443049503 -0.08968681020407213 0 0 0 0
1573201090 0.02511457002165186 -0.012504079677144618 -0.11257721393486489 -0.08754736909681124 0 0 0 0
1575682480 0.023108237755571866 -0.012122914975778238 -0.1121907039529784 -0.08847349355179909 0 0 0 0
1578163870 0.0229151392355713 -0.011788658286123336 -0.11383108153394876 -0.0872843569520528 0 0 0 0
1580645260 0.02088917954491778 -0.010732844984137783 -0.11422817872835736 -0.08607321997767063 0 0 0 0
1583126650 0.018601677463892543 -0.011460539348575377 -0.11498525417716024 -0.08532446728492173 0 0 0 0
1585608040 0.02173213257182312 -0.01282209021920024 -0.1134546873112523 -0.08629446511184971 0 0 0 0
1588089430 0.021628965242660628 -0.012033593271193209 -0.11780886908364237 -0.08254498998354161 0 0 0 0
1590570820 0.021647195536738464 -0.013057578626258124 -0.11807225250433827 -0.0821537442942171 0 0 0 0
1593052210 0.014445595710685466 -0.010837629361082856 -0.11581053370453855 -0.08580082466339838 0 0 0 0
1595533600 0.022296411959560364 -0.012635000693069219 -0.1172431301669127 -0.08276398634910744 0 0 0 0
1598014990 0.01446093096832259 -0.010520736514605543 -0.11987607082764945 -0.08048517246081147 0 0 0 0
1600496380 0.019176734461188692 -0.011513357566950341 -0.11961530449362934 -0.0786530181968304 0 0 0 0
1602977770 0.017604285588737653 -0.010738617679702049 -0.1219660632331698 -0.07663504940512995 0 0 0 0
1605459160 0.02209442522468175 -0.011729316763276371 -0.12319031693708168 -0.07507130407559866 0 0 0 0
1607940550 0.0162185424296244 -0.011618647517345489 -0.12316944022719106 -0.07524214326148378 0 0 0 0
1610421940 0.015729701082358875 -0.011177809811079159 -0.12421678039098245 -0.07424099166267605 0 0 0 0
1612903330 0.012306422179895618 -0.011236093758070623 -0.1228323681817973 -0.07720668417132133 0 0 0 0
1615384720 0.021081909410378 -0.01130373555317288 -0.12414733378158894 -0.07461707314639321 0 0 0 0
1617866110 0.013507856143392232 -0.011064543864896255 -0.12417710372905495 -0.07387367147978209 0 0 0 0
1620347500 0.01872707616850686 -0.009728822002120654 -0.12617910036413815 -0.07161614544276629 0 0 0 0
1622828890 0.010172202090042558 -0.01135121980501051 -0.1271317484685799 -0.07130220603280349 0 0 0 0
1625310280 0.008664150065884809 -0.010898643500847198 -0.12784433505786721 -0.06929642874093506 0 0 0 0
1627791670 0.01326091276590542 -0.010419974626774842 -0.12773350895172358 -0.06965560020414087 0 0 0 0
1630273060 0.010678382666043118 -0.010707271589262985 -0.1290166273581078 -0.0674061622780008 0 0 0 0
1632754450 0.015926854761811417 -0.008598230837986953 -0.13014605702427984 -0.06609799498749763 0 0 0 0
1635235840 0.010852252577994015 -0.008962822584184644 -0.13131772273196546 -0.06279979168757435 0 0 0 0
1637717230 0.008650467792337902 -0.010867851013894385 -0.1297288972323756 -0.06625899913472615 0 0 0 0
1640198620 0.01000441189917065 -0.009595814425447711 -0.13079603378237808 -0.06578785565391591 0 0 0 0
1642680010 0.00654698918471621 -0.010394593193911398 -0.13349149782401132 -0.06073913561800725 0 0 0 0
1645161400 0.010530364761911944 -0.009132148056494586 -0.1320366332528929 -0.06265304632807302 0 0 0 0
1647642790 0.007022645612020937 -0.009108547087838096 -0.13314332904251217 -0.060543984830174445 0 0 0 0
1650124180 0.006194999176333892 -0.009046606964044952 -0.13388886749111878 -0.06027108118587206 0 0 0 0
1652605570 0.004532678404105307 -0.011038901741968558 -0.13468574565910654 -0.05711880319436223 0 0 0 0
1655086960 0.004139447647133052 -0.009546046929985712 -0.13511349942579035 -0.05799658707902802 0 0 0 0
1657568350 0.002685701947451731 -0.010269244292941435 -0.134844264270728 -0.059139209291381827 0 0 0 0
1660049740 0.0024414099442506523 -0.00961773727234547 -0.13504099017419463 -0.05778429305516507 0 0 0 0
1662531130 0.0034264154200825464 -0.007647661937578661 -0.13549361108286637 -0.05604780508887966 0 0 0 0
1665012520 0.003575266813164492 -0.00830912692007864 -0.13630440730120294 -0.05635745016648211 0 0 0 0
1667493910 0.002401787172039952 -0.007379525401020541 -0.13739307221793806 -0.05352109906019211 0 0 0 0
1669975300 0.0003450437016266517 -0.010307566393156392 -0.13800832340426958 -0.05247072476687199 0 0 0 0
1672456690 -0.001554980252944166 -0.009782544092307187 -0.13902698840921285 -0.05061726234553292 0 0 0 0
1674938080 0.0009243460943441133 -0.006910198373434371 -0.14022904051598944 -0.04835295606362603 0 0 0 0
1677419470 -0.003495349619424119 -0.010100638103546798 -0.1398215572719649 -0.04840014347035194 0 0 0 0
1679900860 -0.0018373743310966203 -0.008396089725049696 -0.1400736886540622 -0.04896896046837272 0 0 0 0
1682382250 -0.00015565475839768018 -0.004540686287445197 -0.14095862877945464 -0.04616733376150641 0 0 0 0
1684863640 -0.0024338543502432784 -0.007036974322442481 -0.14149651559092274 -0.042332114472240244 0 0 0 0
1687345030 -0.002052150601270471 -0.004550179377846281 -0.14167970120122292 -0.04301607154500592 0 0 0 0
1689826420 -0.004630411087879671 -0.007834786085855984 -0.14208370876382728 -0.044267390327708614 0 0 0 0
1692307810 -0.002316684117875616 -0.0023143095182021974 -0.14266782738814365 -0.04174618157977389 0 0 0 0
1694789200 -0.002302836335618507 -0.0008427708177540768 -0.14320047718877674 -0.03944194101332452 0 0 0 0
1697270590 -0.0039199981064624405 -0.0018041881116086461 -0.1433020591457651 -0.03976777223417716 0 0 0 0
1699751980 -0.006993729281430428 -0.007372912744546367 -0.1434260766343718 -0.039241205464485326 0 0 0 0
1702233370 -0.005472095372608418 -0.0012653179573733086 -0.1435819979859914 -0.03770361618962567 0 0 0 0
1704714760 -0.008801371430369449 -0.00745535943994245 -0.14520653891742258 -0.03487223967123738 0 0 0 0
1707196150 -0.0064088357063973225 0.0016134693095774583 -0.14527686514601487 -0.034524182892810104 0 0 0 0
1709677540 -0.009490732629184673 -0.006814090381834759 -0.14620264661233814 -0.03146450216938532 0 0 0 0
1712158930 -0.010722892601528713 -0.007223206234923868 -0.14661443664906482 -0.031359794489381324 0 0 0 0
1714640320 -0.010160667669645447 -0.0045657037672280475 -0.1462072262625359 -0.03191144088675653 0 0 0 0
1717121710 -0.009366533445940947 0.004626264227281146 -0.14678839235098518 -0.028368929995267796 0 0 0 0
1719603100 -0.011307688969737772 -0.005819130865395991 -0.1455769386397142 -0.03231367855344464 0 0 0 0
1722084490 -0.012679935980632707 -0.005204433389490585 -0.14755555510802504 -0.027347202760885023 0 0 0 0
1724565880 -0.01195734556603048 -0.002656646420386187 -0.14737776412196152 -0.02706307693297006 0 0 0 0
1727047270 -0.013007961486565004 -0.005426815980016708 -0.14782909267074854 -0.02609147389547772 0 0 0 0
1729528660 -0.01364679182524401 -3.438994122716842e-05 -0.14833411117965195 -0.023193622616297573 0 0 0 0
1732010050 -0.013594462530533539 -0.0013263527777953635 -0.14817866624118262 -0.022674953065818283 0 0 0 0
1734491440 -0.01429998267655976 -0.0011680495155125291 -0.1488616824500193 -0.021545245055420683 0 0 0 0
1736972830 -0.01623805978710286 0.004304288355807161 -0.14924995260725385 -0.019041322237985492 0 0 0 0
1739454220 -0.016287836471505373 -0.0010904580604622286 -0.14946427014626243 -0.018169017265260528 0 0 0 0
1741935610 -0.01696586657631658 -0.001366676733586187 -0.14955448815423236 -0.01899513034172148 0 0 0 0
1744417000 -0.01750784881944568 0.0012529610994116067 -0.14958066683602902 -0.017669448207880103 0 0 0 0
1746898390 -0.01853932517583309 -0.0019215974553758444 -0.15000085589706705 -0.015196054653144412 0 0 0 0
1749379780 -0.019368949334112432 -0.00012258618502642392 -0.14978627758066584 -0.012208507187648295 0 0 0 0
1751861170 -0.017944354501996412 -0.008352907541998193 -0.15002366773509246 -0.016071784102306898 0 0 0 0
1754342560 -0.02066694866855736 0.0047501405983951415 -0.15056283056888686 -0.0105237719541815 0 0 0 0
1756823950 -0.020393639809264865 -0.0038958438745917566 -0.15053686516689177 -0.007645014758937095 0 0 0 0
1759305340 -0.020382351598176394 -0.004352553062067211 -0.15090217921135612 -0.010710365773682715 0 0 0 0
1761786730 -0.023652152824214408 0.0035043884109898045 -0.15063359921798286 -0.009915079192870399 0 0 0 0
1764268120 -0.021804297924914957 -0.0011570232064446217 -0.15097699753288174 -0.006671575137570358 0 0 0 0
1766749510 -0.020887682252686023 -0.004908502895827126 -0.15079012540295508 -0.004589551487923647 0 0 0 0
1769230900 -0.022628084241982357 -0.001242236823391405 -0.1512589656598343 -0.003804368106707518 0 0 0 0
1771712290 -0.02630961908025492 0.003866434449539153 -0.15086788422131212 -0.0017979866654341215 0 0 0 0
1774193680 -0.026082458230166906 0.003364203018617179 -0.15118514021804788 -0.002231539227348643 0 0 0 0
1776675070 -0.023666666455274904 -0.0013383142360556828 -0.1514222136548374 0.0006560603583550886 0 0 0 0
1779156460 -0.026772340201165225 0.0039037235994167385 -0.15118564823837868 -0.0026587044437162964 0 0 0 0
1781637850 -0.03059228138550124 0.010454091215080025 -0.1504537537240747 0.004674302474388112 0 0 0 0
1784119240 -0.02885716967149091 0.006262944150648965 -0.15100192881700675 0.005454033180727944 0 0 0 0
1786600630 -0.02886789256874317 0.005515091794491077 -0.15108206120125006 0.006921044451715323 0 0 0 0
1789082020 -0.030269972351224392 0.006398036152155613 -0.1512340261881563 0.0072153887956016025 0 0 0 0
1791563410 -0.029673258551265857 0.0038177778813931126 -0.15076147227551634 0.00607085465641373 0 0 0 0
1794044800 -0.030110497886273832 0.00564167927031291 -0.15123620240734056 0.00808520134465307 0 0 0 0
1796526190 -0.03139477016736866 0.005207958410851364 -0.15154463703175422 0.00894506388195721 0 0 0 0
1799007580 -0.028874762480802577 0.00191698771765904 -0.15060138362603742 0.010698102210233913 0 0 0 0
1801488970 -0.03662197391501439 0.008442271609542097 -0.1502175729327451 0.01642018234719529 0 0 0 0
1803970360 -0.031102931365902534 0.003932341322099506 -0.15055790946311104 0.012701929077253288 0 0 0 0
1806451750 -0.03510210717265116 0.007331690455990347 -0.15060724764267938 0.017120781070962814 0 0 0 0
1808933140 -0.03686808481556397 0.01025950153748212 -0.1504270582059992 0.017631212845889633 0 0 0 0
1811414530 -0.03596044179033548 0.006530896392926776 -0.15004580192021394 0.016799962027592936 0 0 0 0
1813895920 -0.043578848960548235 0.012555805096901223 -0.1497228220930503 0.02096091782149217 0 0 0 0
1816377310 -0.035851760300770336 0.008044194728032337 -0.1494157542403604 0.023892762463612154 0 0 0 0
1818858700 -0.03920721987700785 0.008913062195211381 -0.1491803244587089 0.021529268202891156 0 0 0 0
1821340090 -0.03941786644349929 0.007359815594847673 -0.14939821008457166 0.022520230948266273 0 0 0 0
1823821480 -0.03770991030711964 0.008249270618194263 -0.14877874184309736 0.024734989754770755 0 0 0 0
1826302870 -0.03748939937262613 0.009595334178283475 -0.1494138917291932 0.02372726313688829 0 0 0 0
1828784260 -0.03816616369723606 0.007713553897615218 -0.1490926028189437 0.026609715808581135 0 0 0 0
1831265650 -0.03911633032466838 0.008384787071082455 -0.14811641652669608 0.02752346863226336 0 0 0 0
1833747040 -0.04360906855515793 0.009277441056701885 -0.1470736470172042 0.02776564354798397 0 0 0 0
1836228430 -0.04235155189643892 0.011988778382857085 -0.14698352175655285 0.03189263681237211 0 0 0 0
1838709820 -0.04094579074118315 0.009570708762985939 -0.14787859704296233 0.03012056204018395 0 0 0 0
1841191210 -0.046528902906129654 0.01119182679333427 -0.14701960332518985 0.03215965936787804 0 0 0 0
1843672600 -0.049397998606166484 0.016142620510220012 -0.14565645026563775 0.03479532062798138 0 0 0 0
1846153990 -0.046564803221274396 0.014247228371603667 -0.1457007700908379 0.037108360105248095 0 0 0 0
1848635380 -0.041758343091672756 0.01173530744813373 -0.14564855692276635 0.03601564091710607 0 0 0 0
1851116770 -0.03902251927029846 0.012084077670802761 -0.14555775274654648 0.03764440946191419 0 0 0 0
1853598160 -0.0488281175095829 0.012175694263710592 -0.14512492206738745 0.039769816077980844 0 0 0 0
1856079550 -0.04457178553484731 0.011467575104440835 -0.14520991245638168 0.03950238947917534 0 0 0 0
1858560940 -0.04930716001870928 0.01361726290818622 -0.14448796615499568 0.040521983202920615 0 0 0 0
1861042330 -0.047051056595540694 0.015394884914107395 -0.14452680831203807 0.04160822403975928 0 0 0 0
1863523720 -0.048580145561989786 0.014841380537770224 -0.14385662734612564 0.043095253348292215 0 0 0 0
1866005110 -0.05034853932278721 0.014485223915214134 -0.1428531105813531 0.04620041909196641 0 0 0 0
1868486500 -0.05019223037692754 0.014213770584409488 -0.14276059711669178 0.04446173440646446 0 0 0 0
1870967890 -0.05487043617727698 0.012975166574120582 -0.14261007857994268 0.047034574071407424 0 0 0 0
1873449280 -0.05224128931955789 0.01547359471197799 -0.14151308197990092 0.04788590402515136 0 0 0 0
1875930670 -0.05744633049043106 0.014501404218232084 -0.14113030223297773 0.04934704278009465 0 0 0 0
1878412060 -0.055226598075281665 0.014912162400384005 -0.14030665811972723 0.05058700288159497 0 0 0 0
1880893450 -0.05617426734412215 0.015489901141643976 -0.14132603471394867 0.04898112647675535 0 0 0 0
1883374840 -0.05537526897555799 0.017297763610906153 -0.1388325198796185 0.054719386850406275 0 0 0 0
1885856230 -0.059961360386978815 0.01659167189463278 -0.13920493564065783 0.05350149598476811 0 0 0 0
1888337620 -0.062131296017479486 0.013693984467152236 -0.13836401176975271 0.056048159312002126 0 0 0 0
1890819010 -0.05495069761849253 0.01859419951168078 -0.13910556192890486 0.053914695287716086 0 0 0 0
1893300400 -0.058499443218537166 0.019013506711231396 -0.1373781306975971 0.05774097472516143 0 0 0 0
1895781790 -0.05977376658460814 0.018853592494044787 -0.13676006654276782 0.05838387349877758 0 0 0 0
1898263180 -0.06249996205208066 0.015727528589524906 -0.13763469858797828 0.056116763352211184 0 0 0 0
1900744570 -0.05906541810344085 0.018638751292355555 -0.13698167502237787 0.05886497879361751 0 0 0 0
1903225960 -0.05915349722244655 0.02380187260412787 -0.13651084116370832 0.05885621629936891 0 0 0 0
1905707350 -0.06044106464713751 0.02334979942241917 -0.13550547170952396 0.0615083000179366 0 0 0 0
1908188740 -0.06250814427756074 0.021234060508092706 -0.13534919974656898 0.060662862726629824 0 0 0 0
1910670130 -0.06952779011220621 0.019907236335184698 -0.1347402033217599 0.062108040736262186 0 0 0 0
1913151520 -0.06640704536585518 0.022543112526451404 -0.13335695250639273 0.06347175403146121 0 0 0 0
1915632910 -0.06455973261011659 0.02639401498580753 -0.13217486438994072 0.0666556687057613 0 0 0 0
1918114300 -0.0645067650585961 0.024211537117571173 -0.13362783924133975 0.06317908750384164 0 0 0 0
1920595690 -0.0698255942106456 0.021920828492153658 -0.13229470104158025 0.06560309648987421 0 0 0 0
1923077080 -0.06528573411737318 0.024146762287990373 -0.13070411989397399 0.06905211458958764 0 0 0 0
1925558470 -0.06571934416110108 0.02756337159205858 -0.132123829157013 0.06600116099930854 0 0 0 0
1928039860 -0.06370231238228873 0.028794149538859986 -0.13122559017190036 0.06788597207639911 0 0 0 0
1930521250 -0.07242171310477422 0.027348234808829683 -0.12809052756904923 0.07209646670515261 0 0 0 0
1933002640 -0.0683048514590306 0.030340492344497857 -0.12789055546904216 0.07199157138012602 0 0 0 0
1935484030 -0.06879513967360104 0.026031139714917693 -0.12829625741169678 0.07087298050143283 0 0 0 0
1937965420 -0.0701043541970302 0.03298806477525434 -0.12696008203164116 0.073689462546676 0 0 0 0
1940446810 -0.0683905728961426 0.03196183992447853 -0.1265726514687468 0.07458370757474814 0 0 0 0
1942928200 -0.07057907782728291 0.031288204754687673 -0.12557247357211238 0.07472103281620072 0 0 0 0
1945409590 -0.07150062213761943 0.03176946913547432 -0.12485490783185602 0.07602205038324543 0 0 0 0
1947890980 -0.0714527549516584 0.0355082530478362 -0.12522999761646303 0.07536322564282937 0 0 0 0
1950372370 -0.07273074985039195 0.03544758802331869 -0.12514987065600652 0.07530675108062576 0 0 0 0
1952853760 -0.07212155791147128 0.034504442190297795 -0.12385368220894127 0.07731028681096679 0 0 0 0
1955335150 -0.07331252209779934 0.03060163011312443 -0.12370002608886173 0.07799898633116455 0 0 0 0
1957816540 -0.07161479601740967 0.029562060073032373 -0.12281090729622797 0.07991387139657036 0 0 0 0
1960297930 -0.07403614916239433 0.034852487962024 -0.12077145443187093 0.08276310501154995 0 0 0 0
1962779320 -0.07365811564269568 0.03601737331780224 -0.12350371424132431 0.07846609344397693 0 0 0 0
1965260710 -0.07619704602827938 0.035530669932396355 -0.12155439556732218 0.0814044877908765 0 0 0 0
1967742100 -0.07482855595923552 0.03561777496439396 -0.12108616035545557 0.08130841324043522 0 0 0 0
1970223490 -0.07493469145905828 0.03346138721639474 -0.11792886896011955 0.08521242465828024 0 0 0 0
1972704880 -0.07548406373246597 0.04097449949839903 -0.12146403816066462 0.08229716880644594 0 0 0 0
1975186270 -0.07577599737214243 0.030048247821846667 -0.11918486508061243 0.08463912607829205 0 0 0 0
1977667660 -0.07786219369585058 0.04196569484885241 -0.12036964636228384 0.08220119761403535 0 0 0 0
1980149050 -0.07587868716963664 0.037999860407509696 -0.11748241141794927 0.08629934208725992 0 0 0 0
1982630440 -0.07827579554908706 0.036601975822327035 -0.11831165646054212 0.08520740687655477 0 0 0 0
1985111830 -0.07664796281139481 0.036460676059950896 -0.11741070825109473 0.08620534944946494 0 0 0 0
1987593220 -0.08053673390722611 0.04474556370533242 -0.1176718812335724 0.08642654829408876 0 0 0 0
1990074610 -0.07939871013374968 0.03855257701886997 -0.11543320381170863 0.08909882140626174 0 0 0 0
1992556000 -0.07782968286899966 0.036969875751231784 -0.11484833967904831 0.09043059120035528 0 0 0 0
1995037390 -0.07962610251788232 0.03826037134547459 -0.11374827747060792 0.09164932890646167 0 0 0 0
1997518780 -0.07969028332232467 0.04062782685002974 -0.11254313329229278 0.09199771694468098 0 0 0 0
2000000170 -0.08371141182595424 0.04530305206567051 -0.11265921858912123 0.09314063246832956 0 0 0 0
