# HZ S RI R 50
1000000000 0.050012804805837086 0.10100622711438273 -0.8958999330818412 0.001665438346735177 0 0 0 0
1002481390 0.052264513601875444 0.09946244936090419 -0.8960064083880328 0.013228700825563346 0 0 0 0
1004962780 0.053960970163321395 0.10072296802700792 -0.8965049858257672 0.012235347858351278 0 0 0 0
1007444170 0.05470804992879443 0.09900029252824505 -0.8968966615405389 0.02502216396798537 0 0 0 0
1009925560 0.05595809686833685 0.09870615831500036 -0.8955596240158301 0.030828358450584008 0 0 0 0
1012406950 0.05793881595014912 0.09808919789461325 -0.8940826559235577 0.047051453951946 0 0 0 0
1014888340 0.05937391275065868 0.0995699780396808 -0.8946391728765639 0.05599160324877778 0 0 0 0
1017369730 0.0609036843313033 0.09873050592846495 -0.8937224516681117 0.06222150839631067 0 0 0 0
1019851120 0.0635344010968954 0.09719022050015591 -0.8931164627967484 0.07148116740346241 0 0 0 0
1022332510 0.06402871686866314 0.09674748131682162 -0.8938537039367519 0.07557713048707747 0 0 0 0
1024813900 0.06650111205214386 0.0953315782779916 -0.8923296670856141 0.08511114545196236 0 0 0 0
1027295290 0.06664679073581539 0.09516081460139056 -0.8923798744871654 0.07712578304415274 0 0 0 0
1029776680 0.0686044045667996 0.09435177778956287 -0.8910059311070122 0.09337000441166536 0 0 0 0
1032258070 0.06995024558536925 0.09482501240726786 -0.890414376218969 0.10768529368583334 0 0 0 0
1034739460 0.071370135787436 0.0923682203841378 -0.8882430758686138 0.10391323566785614 0 0 0 0
1037220850 0.0735823997268128 0.0913789268668862 -0.8861181883037008 0.1310981337060695 0 0 0 0
1039702240 0.07442752124840678 0.09132411989838571 -0.8879169612328367 0.1178048445059269 0 0 0 0
1042183630 0.07504721563198406 0.09127154478367071 -0.8881753293502354 0.12552241688841975 0 0 0 0
1044665020 0.07675916627133475 0.09109038958417658 -0.8841604721749925 0.1402473584473899 0 0 0 0
1047146410 0.07758488188655822 0.08916096538548153 -0.8833018580701211 0.14701507358551022 0 0 0 0
1049627800 0.07819472029224142 0.08777505349286926 -0.8842794920943278 0.1384839447448166 0 0 0 0
1052109190 0.07949840634088279 0.08713534935811885 -0.8814240517934803 0.15744861240590713 0 0 0 0
1054590580 0.08058646371873567 0.08453003942492567 -0.883099751284286 0.1510920690836188 0 0 0 0
1057071970 0.0803124126589451 0.08594796015617016 -0.882678749523529 0.1528507802335214 0 0 0 0
1059553360 0.08327063729093812 0.08334234291367759 -0.8790490941173916 0.16845479195867527 0 0 0 0
1062034750 0.08360640174336303 0.08290729264008985 -0.8776498992928893 0.18182696526757847 0 0 0 0
1064516140 0.08475029691206075 0.08145118806090669 -0.8755302706314598 0.18988745850142633 0 0 0 0
1066997530 0.08573530891097123 0.08056825597507791 -0.8735620671845463 0.18577789881708878 0 0 0 0
1069478920 0.0868812600878819 0.07848483089573219 -0.871711721677448 0.2082971766384353 0 0 0 0
1071960310 0.0869805083694492 0.07870078191897517 -0.8699768971128267 0.21262831116123862 0 0 0 0
1074441700 0.08740694668718851 0.07721420614356436 -0.8680576786556463 0.2187276055287655 0 0 0 0
1076923090 0.08892659909004019 0.07596104124699445 -0.8650631896559785 0.22791125126495296 0 0 0 0
1079404480 0.08936517346433014 0.07490470733223115 -0.8667135415843605 0.22769580231642855 0 0 0 0
1081885870 0.09071288383548473 0.07280711118077424 -0.8579291050124197 0.2493641137440893 0 0 0 0
1084367260 0.0905361730610523 0.07205938688899845 -0.8578702738721676 0.25514772248758094 0 0 0 0
1086848650 0.09169551148599611 0.07036652608240415 -0.8616876485611517 0.24759660749175894 0 0 0 0
1089330040 0.09170887617296546 0.06949408377431247 -0.8576408500236853 0.25853244321043384 0 0 0 0
1091811430 0.09366592805962969 0.06738055678662783 -0.8550419798872253 0.26545678768440606 0 0 0 0
1094292820 0.09331849177359675 0.06644948174170866 -0.8519588825147153 0.27586802061505417 0 0 0 0
1096774210 0.09279911786711942 0.06616725088637014 -0.8521065944995627 0.27988962327768224 0 0 0 0
1099255600 0.09425239610289925 0.06432115307407223 -0.8512329385533673 0.28046657794467433 0 0 0 0
1101736990 0.09597230097543472 0.06206343872709516 -0.845606521803587 0.29305149752419557 0 0 0 0
1104218380 0.09580981679537613 0.06056288599207481 -0.8425641753418305 0.29808079200514725 0 0 0 0
1106699770 0.09530432509900712 0.059904508201848804 -0.840357512171585 0.30577187486668 0 0 0 0
1109181160 0.09915874112457036 0.055872370403007944 -0.838845365595301 0.31112562391709125 0 0 0 0
1111662550 0.0970840765200131 0.05700817989866084 -0.8392200558035722 0.30781187257036735 0 0 0 0
1114143940 0.09575408626961167 0.05678781230729615 -0.8411359804401868 0.30261491487551284 0 0 0 0
1116625330 0.09625024002652317 0.055556499485201076 -0.827406397744676 0.33480176234855824 0 0 0 0
1119106720 0.09533771916664846 0.05441994303042465 -0.8343664572284845 0.3371771272193619 0 0 0 0
1121588110 0.09696658535735456 0.05180399039465291 -0.8200702431382786 0.35517215640909583 0 0 0 0
1124069500 0.09452677528925271 0.052519557135514906 -0.8255660115904261 0.3497746127653375 0 0 0 0
1126550890 0.09945398244776675 0.048806451435144144 -0.8179452870638294 0.36143494132086196 0 0 0 0
1129032280 0.09864035067122909 0.04843089341331743 -0.8170510932077989 0.3655566445100906 0 0 0 0
1131513670 0.0984598567098435 0.04650855352986896 -0.8113214242637979 0.37134723767380656 0 0 0 0
1133995060 0.09679988411012722 0.04680216960786653 -0.805035440644013 0.3812762736907351 0 0 0 0
1136476450 0.09502423551967362 0.04500772912729085 -0.8036589553399626 0.38831868795053687 0 0 0 0
1138957840 0.09823384444510426 0.043078057360647404 -0.8051331630320584 0.38940579875939313 0 0 0 0
1141439230 0.09451180522829535 0.04368272292165296 -0.800584321854108 0.4034682795203935 0 0 0 0
1143920620 0.09637006518955299 0.04167228988367749 -0.7923686528767507 0.40592641646324307 0 0 0 0
1146402010 0.09672319367176987 0.04088304107003818 -0.7939433341546169 0.4008030524229063 0 0 0 0
1148883400 0.09669073282380929 0.03965676355491447 -0.7942551873144374 0.4122336760597905 0 0 0 0
1151364790 0.09537913711572167 0.03834569194921652 -0.785179300649605 0.4250369041913346 0 0 0 0
1153846180 0.09460675955826149 0.03563724035715218 -0.7755627955664548 0.4479608951405151 0 0 0 0
1156327570 0.09522531314614076 0.03605007755703516 -0.7761662029534822 0.4426936298629996 0 0 0 0
1158808960 0.09471524036661824 0.03561235914039686 -0.7765420116187032 0.438622360365853 0 0 0 0
1161290350 0.09136295229662128 0.03409762588734754 -0.77114099169123 0.4547979227604114 0 0 0 0
1163771740 0.09188373834461866 0.03376897710433723 -0.775392774276833 0.4450071783531214 0 0 0 0
1166253130 0.09326534028959732 0.03311404468486328 -0.7646463603463847 0.46177058312973074 0 0 0 0
1168734520 0.09228916608917635 0.03128557290009359 -0.765249635635239 0.46181064201728494 0 0 0 0
1171215910 0.0910388717437789 0.03055280026529493 -0.75849701235064 0.47029493091028357 0 0 0 0
1173697300 0.09302103820209214 0.030300029553578967 -0.7529675569998004 0.4772124806014391 0 0 0 0
1176178690 0.09025455839319119 0.028065075879622935 -0.7448039540782827 0.4840475463270761 0 0 0 0
1178660080 0.08998202912069828 0.027689471011379013 -0.7439438128326124 0.4926834406288282 0 0 0 0
1181141470 0.08736403430781775 0.025551558023058692 -0.7429848232724218 0.49401602303712655 0 0 0 0
1183622860 0.08856711165468883 0.02630108603807676 -0.7299309908127748 0.5113453695760131 0 0 0 0
1186104250 0.08687713623868798 0.024826149337378593 -0.7317804694976522 0.5058243263555474 0 0 0 0
1188585640 0.08790859178385568 0.025426999224579507 -0.727748978986626 0.5086012013299491 0 0 0 0
1191067030 0.08566493809337251 0.024639528320348315 -0.7247140847124188 0.5196554346532987 0 0 0 0
1193548420 0.08555212939758078 0.023986524366843412 -0.7184272238947018 0.5320696564599529 0 0 0 0
1196029810 0.0853569426890957 0.02339103486769589 -0.7150621010566 0.5279208817862827 0 0 0 0
1198511200 0.0857794884006026 0.023118773911842107 -0.7147887625796946 0.534934035807295 0 0 0 0
1200992590 0.08434420186043695 0.02304290068817917 -0.7057814113451757 0.5474661790395944 0 0 0 0
1203473980 0.08338043395015748 0.02156079114380492 -0.698259819317631 0.553898794071829 0 0 0 0
1205955370 0.0826059140395661 0.02096439483757227 -0.7055705327462468 0.5457754155567288 0 0 0 0
1208436760 0.08269611693108476 0.020939096562990474 -0.6849847248604444 0.5697585033366427 0 0 0 0
1210918150 0.08088788854000298 0.019803455631447482 -0.683069243973796 0.5708832499118983 0 0 0 0
1213399540 0.08146117129909645 0.021737669801517652 -0.6828413537298448 0.572034571525728 0 0 0 0
1215880930 0.07932363519731296 0.018905899732655652 -0.67854709250821 0.5786848266870391 0 0 0 0
1218362320 0.08002319292823395 0.02009023110652645 -0.6711336518315449 0.5852941040858058 0 0 0 0
1220843710 0.07797052588245755 0.01901805767694652 -0.6710749548910362 0.5840137450355 0 0 0 0
1223325100 0.07759329377738762 0.018730878032954545 -0.6645005922993302 0.5946402969196962 0 0 0 0
1225806490 0.07721424415055769 0.01881388646314158 -0.6614996482093967 0.5958492354889617 0 0 0 0
1228287880 0.07665981133878161 0.02025069421078807 -0.6530015644911726 0.6035684979725391 0 0 0 0
1230769270 0.0750300813232367 0.017905563056914486 -0.6422388388727464 0.6164474877671117 0 0 0 0
1233250660 0.07413107320606033 0.017740320079601756 -0.6522325015703085 0.6053039800659731 0 0 0 0
1235732050 0.0743088317180285 0.017046206824197975 -0.6392267892514707 0.6227768235125467 0 0 0 0
1238213440 0.07377881946307434 0.018731791559376834 -0.6302517608647104 0.6263833251354328 0 0 0 0
1240694830 0.07289624087016779 0.01852144439791206 -0.6363417420286421 0.626553558185818 0 0 0 0
1243176220 0.07208366560322779 0.016190476618454817 -0.6278322136236442 0.6299772143198666 0 0 0 0
1245657610 0.07151925147526848 0.016838281363966378 -0.618900145351779 0.6389359790913212 0 0 0 0
1248139000 0.07107125872403716 0.018473474080957595 -0.620999248532966 0.6388628161776072 0 0 0 0
1250620390 0.06962771934271211 0.016322182686481713 -0.6133705402741778 0.6439387637407149 0 0 0 0
1253101780 0.06973923056528317 0.014293148342039486 -0.6003680585097596 0.6531632391735862 0 0 0 0
1255583170 0.06837126854507575 0.0159078133412918 -0.6016799989685022 0.6571440937556677 0 0 0 0
1258064560 0.06797317757647306 0.016968926200944097 -0.5877922021141834 0.6676543261095187 0 0 0 0
1260545950 0.06745789618877743 0.016333771003684425 -0.5852073684168316 0.6671458064543297 0 0 0 0
1263027340 0.06692447958526418 0.01648184827833342 -0.5886320160399775 0.663101000418824 0 0 0 0
1265508730 0.06662078137353374 0.014374539780556613 -0.5678022973588509 0.6819960335897058 0 0 0 0
1267990120 0.06608101676315929 0.014574753387813747 -0.5690353167449612 0.6809044540581879 0 0 0 0
1270471510 0.0650517913315487 0.018730117548753072 -0.5674209592297818 0.6799568811711042 0 0 0 0
1272952900 0.06483217198163047 0.017573970726459876 -0.5561150499226517 0.6889597053050853 0 0 0 0
1275434290 0.06476873481164144 0.016110300354346522 -0.5492404146150897 0.7005712914140707 0 0 0 0
1277915680 0.06356586609731972 0.019158379881661188 -0.5461876076892791 0.697563094748943 0 0 0 0
1280397070 0.06263710072689777 0.01724806840255173 -0.539477078605344 0.7060323603878895 0 0 0 0
1282878460 0.06281732514872704 0.017412776976362374 -0.5365231962339322 0.7079165970975371 0 0 0 0
1285359850 0.06199593472585399 0.017860012127510726 -0.5247577589992655 0.7126973825167293 0 0 0 0
1287841240 0.062453923070528154 0.017009264936507392 -0.5229081848539386 0.7151428044809502 0 0 0 0
1290322630 0.06185076705005726 0.018529615303703884 -0.5228369704845439 0.7124817796990265 0 0 0 0
1292804020 0.06127093816182313 0.0180494377502736 -0.5124405829599941 0.7200325170354127 0 0 0 0
1295285410 0.060471447287102194 0.018871538185935385 -0.5065780688298183 0.7228908818428602 0 0 0 0
1297766800 0.06102128125476413 0.016779318618351944 -0.49659697738170216 0.7329989678587442 0 0 0 0
1300248190 0.061207324815071046 0.01784635262137841 -0.5010320496168246 0.729799217419966 0 0 0 0
1302729580 0.058736459026663544 0.02052113824113238 -0.48210704530785375 0.744305843531993 0 0 0 0
1305210970 0.05859612542015465 0.019737180935139213 -0.4800572335374182 0.7445303330507479 0 0 0 0
1307692360 0.06117585696517281 0.01573274627932019 -0.4639119923696339 0.7491862791679014 0 0 0 0
1310173750 0.05938385845880507 0.020038925918989255 -0.4715390911833623 0.7441556497056182 0 0 0 0
1312655140 0.06134563250912968 0.016397767496722317 -0.4634205652482986 0.7537052926183282 0 0 0 0
1315136530 0.057265440536143575 0.02130994679311214 -0.46359683481072983 0.7535849076487553 0 0 0 0
1317617920 0.059506111442512284 0.018582810800602707 -0.44240275708266313 0.7662321483798409 0 0 0 0
1320099310 0.06030740152488741 0.01767578993448539 -0.4456533099024027 0.7639348495093824 0 0 0 0
1322580700 0.057545256843652304 0.01979044694917585 -0.4318990441667315 0.7710612281949415 0 0 0 0
1325062090 0.05670981763769984 0.020146374490222094 -0.43048049840246155 0.7715882867040949 0 0 0 0
1327543480 0.05941794269542433 0.01815699174327659 -0.4056537672743755 0.7828622867781034 0 0 0 0
1330024870 0.05739620269208971 0.020935380719853666 -0.4188736614517091 0.7771561064542698 0 0 0 0
1332506260 0.057602403014242694 0.019192886486844477 -0.3992234105823933 0.7877957356289537 0 0 0 0
1334987650 0.056777766357323387 0.021008025411660136 -0.40578757809333466 0.7846951159582018 0 0 0 0
1337469040 0.05871105372659197 0.019484288279701945 -0.39808521406924974 0.785143662174483 0 0 0 0
1339950430 0.05536608896432852 0.022102053284324914 -0.3931650804397935 0.7875247661922737 0 0 0 0
1342431820 0.05680778288730183 0.021751861703708505 -0.38094963130976456 0.7959669329213722 0 0 0 0
1344913210 0.05877569308082689 0.01970327906225475 -0.3704444060980676 0.7988450301124779 0 0 0 0
1347394600 0.05711652533775476 0.02041031919258845 -0.3723848177739564 0.8020043887233816 0 0 0 0
1349875990 0.05478639937430868 0.021160962265015376 -0.35966275462035324 0.8015681968176741 0 0 0 0
1352357380 0.05492472865036499 0.021141830407407396 -0.3510010020978345 0.8070271013000584 0 0 0 0
1354838770 0.05845022695284741 0.019706826938085748 -0.33565149523289467 0.8076765419423536 0 0 0 0
1357320160 0.05942829043531292 0.020023157094055038 -0.3417405768568021 0.8097630962971152 0 0 0 0
1359801550 0.06066362788392571 0.019232695389033667 -0.33047189532297433 0.8123121398131461 0 0 0 0
1362282940 0.06010404572041061 0.019346665542417034 -0.31678012093536395 0.8158262239072832 0 0 0 0
1364764330 0.05643848245421645 0.021070715869953984 -0.31615867301494377 0.8184994783357971 0 0 0 0
1367245720 0.05753714751660637 0.020133644818152024 -0.3196101749613605 0.8182668855950729 0 0 0 0
1369727110 0.05849931712192508 0.01988431347012871 -0.3117288347077952 0.8201446541022677 0 0 0 0
1372208500 0.05957834489095008 0.019007084257829956 -0.30024742889798867 0.8219241855323045 0 0 0 0
1374689890 0.060144202805384565 0.01867072864806019 -0.30289409458109773 0.821639598730086 0 0 0 0
1377171280 0.06070316842165118 0.01964269871959771 -0.27500690728277843 0.8297756688220683 0 0 0 0
1379652670 0.05510580127568225 0.019014091179606334 -0.28293134764972483 0.8269470813361683 0 0 0 0
1382134060 0.05807122267786081 0.018657052968093047 -0.27539444222399967 0.831724132177777 0 0 0 0
1384615450 0.05832921448582716 0.01944841203955324 -0.28231032941372763 0.8283784920228133 0 0 0 0
1387096840 0.06019351870260505 0.018267236174482313 -0.271530295983525 0.8279084340016811 0 0 0 0
1389578230 0.06205575773045117 0.01725543943055658 -0.25094969632126307 0.8364433955816717 0 0 0 0
1392059620 0.05778741200988878 0.017256277063975554 -0.24215821600279308 0.8411815121543131 0 0 0 0
1394541010 0.05969602983725524 0.01713923003786138 -0.24081405149262466 0.8402607227530162 0 0 0 0
1397022400 0.05958495580320508 0.016129455549413866 -0.22362619809682233 0.8424339962365454 0 0 0 0
1399503790 0.061573382689922664 0.015485089347853876 -0.2117343146707427 0.8445602880493785 0 0 0 0
1401985180 0.06357883956366119 0.017481054735700084 -0.21967490616474813 0.8446170240643531 0 0 0 0
1404466570 0.06386151501010688 0.01689450737779702 -0.21081939578615913 0.8483228191403525 0 0 0 0
1406947960 0.062367018005631755 0.014562651691562494 -0.20598480685321174 0.8452659461833385 0 0 0 0
1409429350 0.06019057159838409 0.015140024455462163 -0.20277207090885183 0.8465205592971192 0 0 0 0
1411910740 0.06062117669031957 0.01318084113240033 -0.18698512986297047 0.8536242941919754 0 0 0 0
1414392130 0.0643990424336577 0.015055494782438457 -0.1965702541514831 0.8509849130188711 0 0 0 0
1416873520 0.06201273076597253 0.01209722400896298 -0.17418405030461384 0.8518291849437203 0 0 0 0
1419354910 0.06579851861100006 0.012653151920610424 -0.15381464875885378 0.8579501247957674 0 0 0 0
1421836300 0.06372435238685183 0.013110202532003904 -0.17761798566509493 0.8514425206134928 0 0 0 0
1424317690 0.06384494841555241 0.01080569851460406 -0.1569000314498451 0.8582471424736737 0 0 0 0
1426799080 0.06479169235607192 0.011879611578946559 -0.16492796753960198 0.8533312156734306 0 0 0 0
1429280470 0.06542387125913209 0.011581556303891892 -0.13656504994629892 0.8543375021412517 0 0 0 0
1431761860 0.06358641830240189 0.008824277384134592 -0.1387879365364388 0.8535416199331126 0 0 0 0
1434243250 0.06489040582040528 0.009757083637946974 -0.12890963221969046 0.8588346701953099 0 0 0 0
1436724640 0.06462536572715671 0.008625555849078812 -0.12626699049945672 0.8563249817853882 0 0 0 0
1439206030 0.06413158671180778 0.006216504703066281 -0.11459662943186082 0.858147299515002 0 0 0 0
1441687420 0.06635307400372346 0.007968613434877186 -0.10268174372341035 0.8612897196081697 0 0 0 0
1444168810 0.06673302627337467 0.0070114746022556535 -0.11444056437706089 0.8569092673838512 0 0 0 0
1446650200 0.06647742467616112 0.006269132178775692 -0.10068682087337129 0.8616074251465378 0 0 0 0
1449131590 0.06497979399339834 0.0034111600365419894 -0.09611766009820656 0.8583464405347637 0 0 0 0
1451612980 0.06585887614720623 0.0032103033571965053 -0.08759641294454587 0.85868767108208 0 0 0 0
1454094370 0.06414247636211456 -0.0013629392109357032 -0.06024700664995813 0.860216958237155 0 0 0 0
1456575760 0.06654375009313242 0.002390277421998081 -0.08144473253170606 0.8561975049297169 0 0 0 0
1459057150 0.06792702178909521 0.0025360146486775197 -0.07420203113689211 0.8614895140821437 0 0 0 0
1461538540 0.06552984660412703 -0.0009265129454588952 -0.05588497179855213 0.8608341674315542 0 0 0 0
1464019930 0.06599736708762445 -0.0024853679770670853 -0.05994305550064743 0.8654041344236469 0 0 0 0
1466501320 0.067276491480688 -0.0013794788884621634 -0.03853197420385744 0.8641852986663965 0 0 0 0
1468982710 0.06509444577188632 -0.009145599333652507 -0.04268918822621176 0.8634142760137259 0 0 0 0
1471464100 0.06559721835647274 -0.004728689864615686 -0.041656926336477454 0.8620503173048292 0 0 0 0
1473945490 0.06558958454427313 -0.012223168000572965 -0.02341348573322459 0.8653673833700376 0 0 0 0
1476426880 0.06639216679118866 -0.006702813555864039 -0.019440224872485465 0.8626106281754206 0 0 0 0
1478908270 0.06644261939537588 -0.007652890908620859 -0.024668895794680446 0.8624175290653251 0 0 0 0
1481389660 0.06479909291492894 -0.014710252765953924 -0.0034976972094830066 0.8608561710835511 0 0 0 0
1483871050 0.06521710634495631 -0.012299245072563832 -0.0033397765127036057 0.8637399378474974 0 0 0 0
1486352440 0.06505153642344558 -0.013710481797650621 0.010935977435183118 0.8628215661541496 0 0 0 0
1488833830 0.06468270941070375 -0.01667176521109301 0.027170307858120125 0.8624198886861466 0 0 0 0
1491315220 0.06450933938875626 -0.01838986349703381 0.02596447911385052 0.8646111710359426 0 0 0 0
1493796610 0.06355920700011951 -0.01706724777762299 0.028029030592417008 0.8637183770316873 0 0 0 0
1496278000 0.06313882238922644 -0.02068792722371749 0.026995428711541924 0.8621708546205198 0 0 0 0
1498759390 0.06316532363054732 -0.020559078390443346 0.04078671644422069 0.8651798858122631 0 0 0 0
1501240780 0.06245934641573213 -0.029695048157823867 0.05986165610105789 0.859806547745669 0 0 0 0
1503722170 0.06208559381541779 -0.02274305075916005 0.04815876916852675 0.8668448899788507 0 0 0 0
1506203560 0.06136131925136199 -0.02694637626825159 0.07266140176198885 0.8623276143536912 0 0 0 0
1508684950 0.05949620037999647 -0.02216028763145276 0.06268012449468503 0.8618463399838664 0 0 0 0
1511166340 0.059261438548037275 -0.029106116006022066 0.07311100441626002 0.8580612914420055 0 0 0 0
1513647730 0.05935872094238311 -0.03017758415610393 0.08847027994300928 0.8586519255149818 0 0 0 0
1516129120 0.058439198451818684 -0.03030779699668657 0.08824812489981271 0.8608613824456135 0 0 0 0
1518610510 0.05743488191658944 -0.032501937550770875 0.09511576834542063 0.855959937551328 0 0 0 0
1521091900 0.05654967663067839 -0.033853210305201255 0.11417048193931102 0.8568194231629822 0 0 0 0
1523573290 0.05679311685298381 -0.036690856977745635 0.10859440351903236 0.8571437939997922 0 0 0 0
1526054680 0.056006261443788535 -0.03998284888677763 0.12498105206677941 0.8548783223444144 0 0 0 0
1528536070 0.05191592899413656 -0.03675061979781876 0.1287732201086925 0.8553390381484542 0 0 0 0
1531017460 0.05321722602363491 -0.04068856432732074 0.12367663431856543 0.8531082260734146 0 0 0 0
1533498850 0.053838481469993794 -0.04668993693525769 0.14270139807131357 0.853032316493811 0 0 0 0
1535980240 0.052082500626965886 -0.0454668704399124 0.14507785031477813 0.8635174810460717 0 0 0 0
1538461630 0.049830011634047384 -0.045681514969270635 0.15951806476152122 0.8478072783165963 0 0 0 0
1540943020 0.048258804900054346 -0.04766815341834038 0.1538319529080932 0.8499113316700413 0 0 0 0
1543424410 0.046002453415848445 -0.04719631625821469 0.16593424632634562 0.8475053638355119 0 0 0 0
1545905800 0.0433304263075114 -0.045402067649662356 0.1830687189368035 0.8455585762658568 0 0 0 0
1548387190 0.04201783158559102 -0.0494873903296635 0.16943432398861147 0.8464363353848638 0 0 0 0
1550868580 0.04480638532356724 -0.05478068534493103 0.20223690582287632 0.8411894143955477 0 0 0 0
1553349970 0.04115653480396897 -0.05528719987793627 0.2022974760627924 0.8399100393179041 0 0 0 0
1555831360 0.03641081468685199 -0.05253735470930992 0.2012029182458681 0.8406078146945434 0 0 0 0
1558312750 0.04058110283935052 -0.05818835804688495 0.19692797009174196 0.8445096672589627 0 0 0 0
1560794140 0.036421234917911625 -0.057901615161759144 0.21537859137300083 0.8356571233259225 0 0 0 0
1563275530 0.03389862977088283 -0.06055585147814841 0.23110948263684572 0.8327924120222024 0 0 0 0
1565756920 0.03212652244450847 -0.06099382393982967 0.23774225759335704 0.8313004423681956 0 0 0 0
1568238310 0.028553313934311868 -0.06110027604328708 0.239112016605979 0.8323118120203801 0 0 0 0
1570719700 0.02744282701468663 -0.06365569374401828 0.231236904434777 0.8324974665396494 0 0 0 0
1573201090 0.023936304020168997 -0.064326906394649 0.24457299115896672 0.8291773250813171 0 0 0 0
1575682480 0.024773668995962415 -0.06673444444659749 0.24755188102960105 0.8274026541349522 0 0 0 0
1578163870 0.02126895787500351 -0.0665404050598137 0.27052445141478787 0.8263125317183845 0 0 0 0
1580645260 0.019908783041154062 -0.06725219047318319 0.26145999487777855 0.8226785922995106 0 0 0 0
1583126650 0.016306161578899876 -0.06814754403660561 0.28588650146884925 0.8162003908943539 0 0 0 0
1585608040 0.017986062501591037 -0.07051270350782982 0.2736457063613393 0.8151576958712912 0 0 0 0
1588089430 0.013422249150031219 -0.06983268724870516 0.2987772901437818 0.8112293514641017 0 0 0 0
1590570820 0.011977454500000054 -0.07214914096484062 0.3073125456130897 0.8067989385593253 0 0 0 0
1593052210 0.005663122685313811 -0.07086259338150627 0.3004775945413761 0.8137873281373612 0 0 0 0
1595533600 0.005789390982736307 -0.07251517441607128 0.312871313747216 0.8040545774774064 0 0 0 0
1598014990 0.0010858562252145682 -0.07163644466787847 0.3284056400524436 0.8004532466365143 0 0 0 0
1600496380 -0.0009080427181940827 -0.07253605970968031 0.3220308447787975 0.79726330072513 0 0 0 0
1602977770 -0.0018837492077473873 -0.07304227174879618 0.3377994705679422 0.7928463525062396 0 0 0 0
1605459160 -0.0028163931423617087 -0.07317588375444464 0.3507742954503356 0.7880190010519045 0 0 0 0
1607940550 -0.010515952414729517 -0.07402070610240936 0.3510150745357761 0.7865863203251793 0 0 0 0
1610421940 -0.012439575595618457 -0.07369085258859029 0.3601069021778331 0.7814535317283332 0 0 0 0
1612903330 -0.01724004746239056 -0.07370418523736416 0.3473243507436627 0.7905281294889916 0 0 0 0
1615384720 -0.012904762125546658 -0.073188735425337 0.3609922054390978 0.7832842919575466 0 0 0 0
1617866110 -0.019305332743580282 -0.07318051036282043 0.35469819051319085 0.783701332144826 0 0 0 0
1620347500 -0.017516398718607173 -0.07250843526162651 0.38381550771999345 0.7690805540955559 0 0 0 0
1622828890 -0.02653024311655069 -0.07255473470611257 0.38404615505051554 0.7724659654844397 0 0 0 0
1625310280 -0.028974112039732994 -0.07226999587801128 0.3911285725767717 0.7658597702262258 0 0 0 0
1627791670 -0.028426255638392087 -0.07327963247619224 0.38996696459374897 0.7688013213308293 0 0 0 0
1630273060 -0.03424560653315959 -0.07236176550523615 0.3910140949951764 0.7685599686160761 0 0 0 0
1632754450 -0.03287363237703047 -0.06974428227741815 0.4226876115138332 0.751865765691917 0 0 0 0
1635235840 -0.03545253377674874 -0.06968006083332628 0.42333695321570763 0.7493079266679484 0 0 0 0
1637717230 -0.03830533118939978 -0.06972988061018517 0.4148263662203572 0.7520120470928588 0 0 0 0
1640198620 -0.04121139968220821 -0.06870566164096654 0.4272398949309902 0.7495763537966127 0 0 0 0
1642680010 -0.04632882795896017 -0.07037692988592001 0.4245648284407362 0.7499471343280896 0 0 0 0
1645161400 -0.04569891885394678 -0.06684463759113692 0.43936897186866086 0.7375658597983369 0 0 0 0
1647642790 -0.051865462746913414 -0.06755041880402357 0.4459909120272444 0.7351222206899386 0 0 0 0
1650124180 -0.05272360065065604 -0.06030172522888692 0.4685203783114928 0.720633527900336 0 0 0 0
1652605570 -0.059378575857145365 -0.06641235051177445 0.46033683899079897 0.7236057347566888 0 0 0 0
1655086960 -0.06385266066003724 -0.06449606789963087 0.46455228354472605 0.7247079616253107 0 0 0 0
1657568350 -0.06763203935979788 -0.0665224229681473 0.4655292163814806 0.7236983159037175 0 0 0 0
1660049740 -0.06526130791332864 -0.05775319684654836 0.47187550951889334 0.7189501048555705 0 0 0 0
1662531130 -0.06777048629999684 -0.05544947486409636 0.47931294476912994 0.712735023962286 0 0 0 0
1665012520 -0.07283983299043924 -0.05972270322020048 0.4873535687318898 0.7087848452111979 0 0 0 0
1667493910 -0.07418240907320678 -0.05378355753367729 0.4858543670195479 0.7051953754855128 0 0 0 0
1669975300 -0.07742142974322183 -0.05678070533284859 0.49892537459200065 0.7007919457471757 0 0 0 0
1672456690 -0.07908882668005042 -0.05091882199386934 0.5076319147791523 0.6965608811349007 0 0 0 0
1674938080 -0.08170100102459792 -0.052237481894423184 0.5091057267778172 0.6977991970512069 0 0 0 0
1677419470 -0.08500098243485012 -0.04819584188080151 0.5175647895157498 0.6838853520498857 0 0 0 0
1679900860 -0.08601722564495264 -0.045793723002318334 0.5121496701799261 0.6909355984794633 0 0 0 0
1682382250 -0.08607701781709695 -0.04068686330850095 0.5251133799873227 0.6804352395034777 0 0 0 0
1684863640 -0.08904196424193919 -0.04173770892523224 0.5326640611081179 0.6728360568613079 0 0 0 0
1687345030 -0.09197512326125849 -0.03723499015435043 0.5337163961066863 0.6708823189817361 0 0 0 0
1689826420 -0.09371861017342223 -0.03417295071471562 0.5331536413144626 0.6738847609579608 0 0 0 0
1692307810 -0.0944947572066349 -0.030074496293542544 0.5416708418508229 0.6693642846025751 0 0 0 0
1694789200 -0.09617042878111394 -0.025723352794708353 0.5524784194677269 0.6540286494050915 0 0 0 0
1697270590 -0.09842516246585846 -0.023665086046326955 0.5537307806008035 0.6528054785350301 0 0 0 0
1699751980 -0.10114963217497706 -0.024524243656317366 0.5527670783718276 0.6560643465944421 0 0 0 0
1702233370 -0.10491204288444855 -0.02668212527236097 0.5699409627769295 0.6377621828856075 0 0 0 0
1704714760 -0.10538657714319685 -0.01748417682525509 0.5824464025777569 0.6292783473467947 0 0 0 0
1707196150 -0.1057813340301329 -0.014470634165209556 0.5800766528499368 0.6303252700522626 0 0 0 0
1709677540 -0.1076738464720199 -0.010275431249746168 0.5900759424662422 0.6248245340227179 0 0 0 0
1712158930 -0.1093269710266279 -0.010345694068468164 0.601614610615755 0.6121440559476464 0 0 0 0
1714640320 -0.1117170291004805 -0.012078308743642966 0.5871896076604037 0.6243821416625086 0 0 0 0
1717121710 -0.11096500092459027 -0.0002542566493541461 0.6026599938969525 0.6130409808588261 0 0 0 0
1719603100 -0.1137009384398101 -0.002413078191448132 0.5990374174397225 0.6128698501974131 0 0 0 0
1722084490 -0.11377164765909228 0.004299918403501557 0.6128429147104698 0.5978452685850675 0 0 0 0
1724565880 -0.11399590143175753 0.006277090972899929 0.6088207963969179 0.6059008647667161 0 0 0 0
1727047270 -0.1158441983419779 0.003921899501890331 0.6165253845673052 0.5935118414129043 0 0 0 0
1729528660 -0.11556967351844756 0.014862824175483177 0.6319584045770785 0.5788456915000446 0 0 0 0
1732010050 -0.11652973772412596 0.01306365548796769 0.6379407190227715 0.5747163901033499 0 0 0 0
1734491440 -0.11554546938619167 0.02007685651948919 0.6411318896612591 0.5725476316831051 0 0 0 0
1736972830 -0.11711711647014231 0.026412104740790008 0.6416387828101949 0.5665442974910913 0 0 0 0
1739454220 -0.11775524345701796 0.025770740362985073 0.6449184475948272 0.5687614227883074 0 0 0 0
1741935610 -0.11710325427528408 0.026023223457072458 0.6477296346290978 0.5617225818860818 0 0 0 0
1744417000 -0.11656350080919776 0.028939301237287864 0.6478327503026555 0.5594478233366328 0 0 0 0
1746898390 -0.11779126629837552 0.03215813875068626 0.6622199018963046 0.5430282816599218 0 0 0 0
1749379780 -0.11732379689839392 0.03918514499369462 0.65420680185803 0.5502738461052344 0 0 0 0
1751861170 -0.116940777427301 0.045422053900486606 0.6663621164492188 0.5326226387777622 0 0 0 0
1754342560 -0.11656285998827885 0.048490624828235046 0.672312281733832 0.5290900161684041 0 0 0 0
1756823950 -0.11540112034187586 0.041560638583103826 0.6783208817468054 0.5186065593041465 0 0 0 0
1759305340 -0.11650846936920799 0.05524118318021876 0.6752171085494466 0.528553743300841 0 0 0 0
1761786730 -0.11495310960468134 0.058125582405462096 0.6759380723896561 0.5220991256611678 0 0 0 0
1764268120 -0.11157689826328651 0.05318256020590329 0.6917927715063681 0.5028238057202855 0 0 0 0
1766749510 -0.11331739089302055 0.05894575730378144 0.6912692360370487 0.5008162321858154 0 0 0 0
1769230900 -0.1115332202675241 0.06461578514826107 0.6953288853486072 0.49661793594249093 0 0 0 0
1771712290 -0.10876301699228845 0.06075970595242536 0.6999316419209516 0.48852190836879456 0 0 0 0
1774193680 -0.10748468822043895 0.06593487221068124 0.7108810308496206 0.47486909489921536 0 0 0 0
1776675070 -0.10529014420653494 0.06910445324185555 0.7108380388908198 0.47474457148660143 0 0 0 0
1779156460 -0.105060963107227 0.07468531812996788 0.7058349333683052 0.47652723913352135 0 0 0 0
1781637850 -0.10492320111602292 0.07974620034428834 0.7198159082746844 0.45881599094111164 0 0 0 0
1784119240 -0.10494923356209382 0.08965690128076793 0.7246269424599318 0.44770170593582304 0 0 0 0
1786600630 -0.09836738306883713 0.08414845357375307 0.7277790237633716 0.4450232508098074 0 0 0 0
1789082020 -0.10124028104752704 0.09006534073309931 0.7256535400784485 0.44832439670185414 0 0 0 0
1791563410 -0.09669635193139219 0.08694038970123165 0.7304500261830881 0.4352908316574934 0 0 0 0
1794044800 -0.09461934767862924 0.09039610968541482 0.7277290863184868 0.4453985950676117 0 0 0 0
1796526190 -0.09090511024458352 0.09167713455850707 0.7414807225266735 0.42095876652499464 0 0 0 0
1799007580 -0.08897396136126802 0.09377614181383179 0.7426162277974315 0.4173049814248235 0 0 0 0
1801488970 -0.09309012096148966 0.10611122453526597 0.7562190181044489 0.38399749214984413 0 0 0 0
1803970360 -0.08862946577355726 0.10674553203180358 0.7467382065356318 0.4021628235198991 0 0 0 0
1806451750 -0.08322253578843908 0.1050738924876995 0.751152194304931 0.394276435914236 0 0 0 0
1808933140 -0.0772973452670631 0.10313998489531713 0.7591214445952681 0.383615843233133 0 0 0 0
1811414530 -0.07832675132524987 0.11081584906163 0.7613389098641314 0.3714120137896341 0 0 0 0
1813895920 -0.0806778421947864 0.1099623316035418 0.7599213163364592 0.38101956249238256 0 0 0 0
1816377310 -0.07751458322122397 0.1141069807112104 0.7665862328551181 0.36546491998896025 0 0 0 0
1818858700 -0.07382405116107389 0.11217242175871871 0.7652934370136923 0.3659357240140576 0 0 0 0
1821340090 -0.06736332141022632 0.11510363347470139 0.7766515016265918 0.33592644236473324 0 0 0 0
1823821480 -0.06562680806154186 0.11194729012087459 0.7662340658204791 0.36215236259758604 0 0 0 0
1826302870 -0.05747196563834255 0.11486497840209052 0.7706150858358789 0.35806974214343934 0 0 0 0
1828784260 -0.05724369800089158 0.1174909931949083 0.7789949165351399 0.32631786163221405 0 0 0 0
1831265650 -0.054091578568522744 0.11812598699694085 0.7806874101411735 0.3253999398027673 0 0 0 0
1833747040 -0.05701890631206545 0.11819763913182141 0.7775034398092993 0.32054826434779243 0 0 0 0
1836228430 -0.054625810323783434 0.11955971072059969 0.7832410695337588 0.317976383152138 0 0 0 0
1838709820 -0.047073721104807766 0.12007738443226924 0.787071267914526 0.3048987058450179 0 0 0 0
1841191210 -0.04774116349395397 0.12026475096927039 0.7858738885124199 0.3099995176112012 0 0 0 0
1843672600 -0.04366769486239502 0.12354586126792665 0.785902646123348 0.29929463978822407 0 0 0 0
1846153990 -0.03789353765466498 0.1192970055470059 0.7871602819832165 0.2942959944634104 0 0 0 0
1848635380 -0.034865333662740784 0.12114376194628979 0.7942378765061266 0.2845850351794206 0 0 0 0
1851116770 -0.03230653244829421 0.12098891362404238 0.7967237800087827 0.27135376565589664 0 0 0 0
1853598160 -0.029316232107073674 0.11934757175265145 0.8014868585758848 0.25490077590163746 0 0 0 0
1856079550 -0.025208511612445146 0.11922286653901643 0.8019183886293575 0.25359372421654097 0 0 0 0
1858560940 -0.02291130774202898 0.11815626982952131 0.7958458769699032 0.2642798172966729 0 0 0 0
1861042330 -0.018107464319708277 0.11813652049945346 0.797953500028019 0.25804993996192144 0 0 0 0
1863523720 -0.017747164069664322 0.11688410386609545 0.8016231735682965 0.24567925038361677 0 0 0 0
1866005110 -0.01613882127121493 0.11555097164961561 0.8070392514726119 0.2335684868898543 0 0 0 0
1868486500 -0.013046014675178262 0.11557521559088953 0.8077581893985964 0.2224701318658415 0 0 0 0
1870967890 -0.01449061348015704 0.11233002061014966 0.8096137733386501 0.21502702981209362 0 0 0 0
1873449280 -0.008039111975193936 0.11140334908195858 0.8104465243373932 0.21600285567413371 0 0 0 0
1875930670 -0.004869231128268497 0.11257842165184713 0.8160176312625306 0.1887014468784378 0 0 0 0
1878412060 -0.007009931383713399 0.10955041081219292 0.8141614228190048 0.1791626641748355 0 0 0 0
1880893450 0.0007463395257192457 0.10863654159414812 0.8131024476556088 0.19018414064398553 0 0 0 0
1883374840 0.0032091611465798393 0.10769726557045789 0.816690606477676 0.1772827422346327 0 0 0 0
1885856230 0.0023612321340912073 0.10307883909373651 0.8150676255616759 0.17322454780612645 0 0 0 0
1888337620 0.0015234361992224384 0.100206744245727 0.8211063361022017 0.14757562492668774 0 0 0 0
1890819010 0.0127994754247166 0.10403657856379522 0.8211243146182867 0.1629199241846926 0 0 0 0
1893300400 0.014844091778722486 0.102403030928563 0.8201842729630081 0.15831218038589912 0 0 0 0
1895781790 0.013291507842200337 0.09811234185501755 0.8174341134925934 0.15063237160116447 0 0 0 0
1898263180 0.011605233394141299 0.09396134779001565 0.8235368615261931 0.12314286891765824 0 0 0 0
1900744570 0.018140815196887372 0.09378864346687835 0.8237957424198106 0.13250463066245727 0 0 0 0
1903225960 0.018938544559276453 0.09119511270940794 0.8196547826015884 0.13452188927356934 0 0 0 0
1905707350 0.019388727722197536 0.08763473824204275 0.8249169372505532 0.12222946200878655 0 0 0 0
1908188740 0.026011777946219353 0.08922103217389706 0.8244056394833799 0.11553675611904404 0 0 0 0
1910670130 0.01819657056165912 0.0814434904277356 0.8235626552833815 0.10894839650880336 0 0 0 0
1913151520 0.0207395250595732 0.0785508962017259 0.8222695485673466 0.09318293185730762 0 0 0 0
1915632910 0.023567393879513825 0.07654346349724446 0.8257766386389015 0.09996686565981643 0 0 0 0
1918114300 0.022487176074878 0.07193684339189035 0.8251033017660157 0.08392129328990908 0 0 0 0
1920595690 0.022989417273791855 0.07121503421965569 0.8270006037850384 0.07546147906668112 0 0 0 0
1923077080 0.02775547162291578 0.06752119607671961 0.8286150729335802 0.05512122557484544 0 0 0 0
1925558470 0.02537622999071961 0.06431904001486534 0.8248692789386252 0.0939913446175528 0 0 0 0
1928039860 0.02613712922022045 0.06198970702947465 0.8269909456550145 0.058807118978357865 0 0 0 0
1930521250 0.023250419659842193 0.06013113455661877 0.8264505612193278 0.03273832154877471 0 0 0 0
1933002640 0.0236948074548221 0.05553399189954063 0.8260234938979432 0.04483538724759611 0 0 0 0
1935484030 0.02596625674435552 0.054353761158399544 0.8260456642670188 0.025531187819002155 0 0 0 0
1937965420 0.024510392170076598 0.052295546021318695 0.8243730006554985 0.013519428706702979 0 0 0 0
1940446810 0.024743181176683265 0.04593146123799996 0.8262988406424654 0.024170350643679214 0 0 0 0
1942928200 0.0220384966495738 0.040867822779546766 0.8245708087280554 0.012444356122764753 0 0 0 0
1945409590 0.02197393632876903 0.04253253879848473 0.8241670419965117 -0.00674719524708488 0 0 0 0
1947890980 0.0219038690489484 0.04165642254522698 0.8232960437631007 0.008686698959917988 0 0 0 0
1950372370 0.019304154115910615 0.040628061866293905 0.8219014623968237 -0.028097751520476628 0 0 0 0
1952853760 0.019927391927909214 0.03713379137364365 0.8226724898510274 -0.020131594301569557 0 0 0 0
1955335150 0.017102845709868746 0.028060914606407358 0.8223285103663425 -0.025933798267028147 0 0 0 0
1957816540 0.017173846593487804 0.02751401740229197 0.8206742935837459 -0.05554524199857807 0 0 0 0
1960297930 0.015947777297769312 0.02565717589282485 0.8244398366369847 -0.03936751747679631 0 0 0 0
1962779320 0.012645224341332506 0.026845810836206824 0.8202253948047971 -0.05032739444542535 0 0 0 0
1965260710 0.00978073308693383 0.017002732773166194 0.8201803017912261 -0.05633561872325893 0 0 0 0
1967742100 0.008630751186218946 0.01448876904862332 0.8160358972680466 -0.05938742075212515 0 0 0 0
1970223490 0.0071408392244924615 0.012880096817605971 0.8142753237465867 -0.07383497779800387 0 0 0 0
1972704880 0.006000569473595001 0.006173433680158286 0.821617190622714 -0.05095304610752144 0 0 0 0
1975186270 0.002071024170992698 0.0036910661306489055 0.8140971686243553 -0.09217982875122087 0 0 0 0
1977667660 -0.0015478826264882315 0.0072902069292190355 0.8157194924329375 -0.0863023156451871 0 0 0 0
1980149050 -0.000192402243307574 -0.0008410691158051354 0.8108666452633299 -0.0962932328226464 0 0 0 0
1982630440 -0.00291749795733182 0.00227229638175862 0.8118502029983191 -0.08314129345942156 0 0 0 0
1985111830 -0.007151076697437211 -0.0018438049394889787 0.8077439972593634 -0.10640558663906043 0 0 0 0
1987593220 -0.013365945913227964 -0.002303691823080146 0.8044021949931655 -0.12274487599711109 0 0 0 0
1990074610 -0.014632641540707585 -0.004349195489678255 0.8047288102686991 -0.1071444150519415 0 0 0 0
1992556000 -0.015631344157386092 -0.006756260274380172 0.800698966605408 -0.13695909487231933 0 0 0 0
1995037390 -0.019012164891366295 -0.006994393086075428 0.8034851857614411 -0.12297505100850821 0 0 0 0
1997518780 -0.0232918763952484 -0.012236769561378319 0.7964792940034456 -0.15138253011423763 0 0 0 0
2000000170 -0.028144884312957804 -0.0054303535541218055 0.7979882665921282 -0.15416179258296445 0 0 0 0
