# HZ S RI R 50
1000000000 -0.0030083283422469263 0.07560292075859668 0.0447124025157894 -0.036487794664418226 0 0 0 0
1002481390 -0.0026937382990862915 0.07599452797384856 0.044482545364582717 -0.03699505457450458 0 0 0 0
1004962780 -0.0016277744187887697 0.07793668213884801 0.04477126008490274 -0.036636956026194746 0 0 0 0
1007444170 -0.002870200148595321 0.0755454047665007 0.04467232805672901 -0.037136686618545904 0 0 0 0
1009925560 -0.002906440687379691 0.07574086249592646 0.04435318977335892 -0.037740010251759146 0 0 0 0
1012406950 -0.0015649695219615586 0.07735004165258849 0.044103105462626996 -0.03838189513518587 0 0 0 0
1014888340 -0.0011894594882533162 0.07834906656804283 0.044386475463183445 -0.03827033856592615 0 0 0 0
1017369730 -0.0008968857394021046 0.07938038443292807 0.04389262665069849 -0.03922301071441046 0 0 0 0
1019851120 -0.0008225615312163347 0.07827845633653525 0.043929294801852606 -0.03926371422615846 0 0 0 0
1022332510 -0.00032376954644742443 0.08035948442796599 0.04347759396717592 -0.03988298886574386 0 0 0 0
1024813900 0.002377328514646706 0.08107790555268132 0.04275560299477448 -0.04078149562611093 0 0 0 0
1027295290 0.0005476699156340071 0.08030067071294777 0.04402837133631817 -0.03996608556929007 0 0 0 0
1029776680 0.0006401071905161344 0.08029458937009913 0.04421356841423239 -0.03979013894426819 0 0 0 0
1032258070 0.0018369693923884992 0.08213246350815064 0.04318833285176835 -0.041178204769814174 0 0 0 0
1034739460 0.0015125881303311656 0.08207184034372118 0.0435237574243561 -0.041070968403057816 0 0 0 0
1037220850 0.002377059781777793 0.0828451363257542 0.04282679653189634 -0.04198791393759546 0 0 0 0
1039702240 0.0029332540282180682 0.08424566337466488 0.04337962317904497 -0.04175251057473972 0 0 0 0
1042183630 0.0035484498124010405 0.0842090552610603 0.04313680299377244 -0.04210122690448055 0 0 0 0
1044665020 0.0035545014433250627 0.08504594041421658 0.04303444777578687 -0.04237182096860739 0 0 0 0
1047146410 0.004048259422022177 0.08560800484006793 0.04260804986787283 -0.04315984109656362 0 0 0 0
1049627800 0.005553083357125181 0.0852284082627543 0.042647108759199366 -0.04317216574314601 0 0 0 0
1052109190 0.004585761448948035 0.08561248263888759 0.0431312481151828 -0.04308152001226949 0 0 0 0
1054590580 0.005504444020056695 0.08558224684887743 0.04276371077547368 -0.04367697539175604 0 0 0 0
1057071970 0.0061228390502511 0.08632563838606912 0.04283069724348837 -0.04364250988997357 0 0 0 0
1059553360 0.005932933611446218 0.08649496583412185 0.042567264248429146 -0.04415921210161569 0 0 0 0
1062034750 0.006247490777066403 0.08756184532678142 0.04217157276706323 -0.044839834576457564 0 0 0 0
1064516140 0.006473937111193468 0.08821294526682705 0.04234500091498724 -0.04495031775058728 0 0 0 0
1066997530 0.005917133795684734 0.08973262335965 0.04232007834643987 -0.04502474579622557 0 0 0 0
1069478920 0.007810182358038215 0.08786249746559478 0.042184201594812856 -0.04567389480595925 0 0 0 0
1071960310 0.0086018544089973 0.089148778282092 0.0413409768354462 -0.04626372013381037 0 0 0 0
1074441700 0.007777779961587651 0.08912736869551151 0.04174084447537648 -0.04622671289743969 0 0 0 0
1076923090 0.009541738777153606 0.0891071587847257 0.04140086610504374 -0.0466764208524421 0 0 0 0
1079404480 0.009838333298243174 0.08948668122767335 0.041622295838264156 -0.046794344439647494 0 0 0 0
1081885870 0.010012097082282645 0.09103056011970441 0.041181273132535515 -0.04724614741353431 0 0 0 0
1084367260 0.011114170378955492 0.09132963516649406 0.04052609535943125 -0.04811369709548803 0 0 0 0
1086848650 0.01105029259285186 0.09132628376328483 0.04121889996869567 -0.04771183961400944 0 0 0 0
1089330040 0.011815460875413828 0.09165852485230272 0.04100681010425857 -0.04795286097543032 0 0 0 0
1091811430 0.01323274073139155 0.09238742556521742 0.04063114014722467 -0.04851506590775928 0 0 0 0
1094292820 0.01449072986678787 0.09126174766351891 0.040564231642414406 -0.04874058445668147 0 0 0 0
1096774210 0.013127281437975778 0.09411904153965586 0.04011544911533177 -0.04913683653592039 0 0 0 0
1099255600 0.012939586814703854 0.09441024551793231 0.03972546747341159 -0.04962670932114049 0 0 0 0
1101736990 0.015356068799517014 0.09325724655824742 0.03988714373682057 -0.04966482324616671 0 0 0 0
1104218380 0.016331957355441202 0.09295678587612843 0.03975806726170408 -0.049950694945426415 0 0 0 0
1106699770 0.015265497697771378 0.09479292024503032 0.03978808001680124 -0.05032255756265589 0 0 0 0
1109181160 0.01844803227712769 0.09305414047267645 0.03959099757364511 -0.05035116941226639 0 0 0 0
1111662550 0.018692028838386804 0.09378461123727352 0.03885313917002666 -0.05075145708143814 0 0 0 0
1114143940 0.017080527091558488 0.09473312798321241 0.04071604166453541 -0.04983800181593175 0 0 0 0
1116625330 0.019837688856300443 0.09508957480186263 0.03850495720764528 -0.05154689740044523 0 0 0 0
1119106720 0.016420113751179088 0.09697072957672043 0.039186523921600346 -0.051735269747336325 0 0 0 0
1121588110 0.02009036377729598 0.0962008711374624 0.03777050680708004 -0.05256433415708495 0 0 0 0
1124069500 0.02103558291867039 0.09636755555898407 0.03843656016664578 -0.05237988588915452 0 0 0 0
1126550890 0.023567683496052337 0.0954410038680158 0.037843229872423265 -0.052878947750725984 0 0 0 0
1129032280 0.02183347981769471 0.09672900188297613 0.037827298146317204 -0.053011007480593154 0 0 0 0
1131513670 0.022889422343081802 0.09664320722728392 0.03751880482601376 -0.05306660269280878 0 0 0 0
1133995060 0.022085730016444476 0.09773887987289523 0.037313105679787836 -0.05339714643131504 0 0 0 0
1136476450 0.02231214141728893 0.09735258771485489 0.03751412835595142 -0.0537575167110525 0 0 0 0
1138957840 0.024734120309043435 0.09710830478226479 0.037425061442353844 -0.05388268532178485 0 0 0 0
1141439230 0.02360725499959076 0.09828580146190798 0.03771431770891561 -0.05422070125087172 0 0 0 0
1143920620 0.02571349482121169 0.09813487958369743 0.036497845101330896 -0.05467324059384311 0 0 0 0
1146402010 0.02540865580768468 0.09828001836152235 0.03693995319009653 -0.05469647532188512 0 0 0 0
1148883400 0.028314757710673533 0.09839392391138325 0.03643806076766315 -0.05525175330059134 0 0 0 0
1151364790 0.026603050282949958 0.09817275812832674 0.03642564098532523 -0.055302208481376555 0 0 0 0
1153846180 0.027655370883895015 0.0983764061836178 0.03526610752375267 -0.056268648592233336 0 0 0 0
1156327570 0.027923937999355386 0.09894420771134775 0.035615448468285245 -0.056066353679807085 0 0 0 0
1158808960 0.02847046956051978 0.09938592657576643 0.03560113003608137 -0.0565246919433644 0 0 0 0
1161290350 0.02747460735923965 0.09963600732640486 0.03517737371892256 -0.05691141994152927 0 0 0 0
1163771740 0.03157815673749886 0.09973113990906432 0.03579598985729567 -0.05667682001568474 0 0 0 0
1166253130 0.03172520847865889 0.10017301483370782 0.0352635715151454 -0.05730263243182942 0 0 0 0
1168734520 0.0336945138013702 0.10007293533254692 0.03538001443597342 -0.05714934882096658 0 0 0 0
1171215910 0.03210062652777926 0.09969580521057646 0.03507194172247814 -0.05726840766905846 0 0 0 0
1173697300 0.031600309133752676 0.1003866292201908 0.034372201517465485 -0.05838032365789349 0 0 0 0
1176178690 0.033442821067175305 0.09983954559280774 0.03436910723635017 -0.05809010604295384 0 0 0 0
1178660080 0.03509170531278382 0.09978367423048126 0.03421983937004993 -0.05862392439916856 0 0 0 0
1181141470 0.03295995012037485 0.09873702505262306 0.03404821554123781 -0.0587686589614044 0 0 0 0
1183622860 0.03654987270534089 0.10091625390363188 0.03327446757772999 -0.05926011160239936 0 0 0 0
1186104250 0.037316404283070446 0.10081096030273184 0.03374684655016552 -0.05916257739316415 0 0 0 0
1188585640 0.03515609649482853 0.09984860382102043 0.03357779679876534 -0.05903934397610924 0 0 0 0
1191067030 0.03589211136663878 0.10006913866824073 0.03328044672730457 -0.05958818098052887 0 0 0 0
1193548420 0.03562085631919154 0.09991682228961705 0.03373593149547734 -0.059790870119582076 0 0 0 0
1196029810 0.0386383900457038 0.10107294867746722 0.033662458953658006 -0.05976940941651355 0 0 0 0
1198511200 0.03925942178948419 0.101029155273399 0.03301164823309768 -0.06037240686918888 0 0 0 0
1200992590 0.040025105544600315 0.10138477945969664 0.0317148910236062 -0.06096068306190184 0 0 0 0
1203473980 0.03937834037160401 0.10086406823047302 0.03259855200902333 -0.06077884014508957 0 0 0 0
1205955370 0.03964188059950721 0.09949564110442581 0.03282746132232872 -0.06067127787941543 0 0 0 0
1208436760 0.04330741765990239 0.1013732399521536 0.031128031369682813 -0.061857337921153534 0 0 0 0
1210918150 0.042012613134208586 0.10004098699521166 0.031131154446740163 -0.061901693944359015 0 0 0 0
1213399540 0.04158129201427166 0.10124020898461185 0.031914481266186734 -0.061810868364735636 0 0 0 0
1215880930 0.04268199544881369 0.10005584467688192 0.031193940704400142 -0.06229747529969942 0 0 0 0
1218362320 0.04580701619867537 0.10272088012962821 0.030684466404394213 -0.06270208002030216 0 0 0 0
1220843710 0.043767281816744164 0.10103372795523327 0.03073657345007295 -0.06246030360163942 0 0 0 0
1223325100 0.04505015559220515 0.10057887007311545 0.03071666553165687 -0.06314377422977463 0 0 0 0
1225806490 0.046086649761546174 0.10159909145451682 0.030874804389771013 -0.06322196387801593 0 0 0 0
1228287880 0.04740981532828644 0.10391780584832691 0.029962296658361656 -0.06374037977793992 0 0 0 0
1230769270 0.04735919805117273 0.10182163172571053 0.02918502829766606 -0.06406209790538289 0 0 0 0
1233250660 0.047280682780069895 0.10162312432487623 0.0296623059608381 -0.06417889466869996 0 0 0 0
1235732050 0.04795471268595339 0.0997746374780622 0.029861395082594402 -0.06447282659460953 0 0 0 0
1238213440 0.04991390812373178 0.10225378126757197 0.02913114172599565 -0.06484700455830136 0 0 0 0
1240694830 0.05006451146664017 0.10246399373234985 0.02945049537904482 -0.06495752017667208 0 0 0 0
1243176220 0.05092101716316694 0.10085912023842095 0.02824970747960683 -0.06554983452348809 0 0 0 0
1245657610 0.050462593900960064 0.10088961563913622 0.02865682995161211 -0.06538326481543918 0 0 0 0
1248139000 0.05133626233483175 0.10196195928100965 0.028489888477502605 -0.06608819061457248 0 0 0 0
1250620390 0.052186031331600526 0.09948651448496328 0.028198779336216156 -0.06576730848304635 0 0 0 0
1253101780 0.05204672160656144 0.09759859357130554 0.02742670434030767 -0.06607249693795807 0 0 0 0
1255583170 0.0521047134551919 0.09822788986771354 0.027551031286663214 -0.06687684583619714 0 0 0 0
1258064560 0.05342496762012594 0.10140298102542963 0.026784042983154625 -0.06721880511517211 0 0 0 0
1260545950 0.0538081756309058 0.09936574087643166 0.027744441420479667 -0.06713067647857421 0 0 0 0
1263027340 0.053935726368183785 0.09804480351435763 0.02736751560945566 -0.06707493839269384 0 0 0 0
1265508730 0.05602448354069965 0.1003561262212819 0.025728017520255348 -0.06785632429443081 0 0 0 0
1267990120 0.05593343792391343 0.09944731274007505 0.026456330551581243 -0.06773273569357033 0 0 0 0
1270471510 0.05607223368388136 0.10140521775864093 0.026511575505336032 -0.0678581468142372 0 0 0 0
1272952900 0.05689361673089338 0.10169761018142183 0.026379086175663615 -0.06811690077458661 0 0 0 0
1275434290 0.05733341326956321 0.09861734301712338 0.025640206558403086 -0.06860249629715018 0 0 0 0
1277915680 0.05814745502445743 0.09994473878755684 0.024923770172891813 -0.06875017310392521 0 0 0 0
1280397070 0.0570301036139468 0.10065136108863074 0.025643043744966357 -0.06893563874068659 0 0 0 0
1282878460 0.05894030974265322 0.09949182589571369 0.024875289064233263 -0.06925079537849374 0 0 0 0
1285359850 0.05978000491363237 0.09824624957425433 0.02469596045111702 -0.06951820507969096 0 0 0 0
1287841240 0.06122607166772566 0.09630332180963443 0.024895830304099312 -0.06952375574314132 0 0 0 0
1290322630 0.06105349200196233 0.09838499390806232 0.023942985742932184 -0.06986002078204015 0 0 0 0
1292804020 0.061967312944384276 0.09660425277124575 0.022755357108958534 -0.07059095990264798 0 0 0 0
1295285410 0.061091151872922314 0.09945239709912838 0.02339264203642222 -0.07035238934648849 0 0 0 0
1297766800 0.06332297122249458 0.09450643635491214 0.022691999993997722 -0.07111623520392556 0 0 0 0
1300248190 0.06261356376768942 0.0966157812382945 0.022673635965722323 -0.07095930363667909 0 0 0 0
1302729580 0.06371629404529967 0.0975048824917387 0.022073463214115848 -0.0717527026459549 0 0 0 0
1305210970 0.06392309512629048 0.0968836529541485 0.02237932384643271 -0.0716385470934667 0 0 0 0
1307692360 0.0654163446593686 0.09578297205896559 0.02177366061030685 -0.07188093721689855 0 0 0 0
1310173750 0.06592932325168062 0.09541419692957046 0.021159649201227874 -0.071899000554803 0 0 0 0
1312655140 0.06702799589042391 0.09382885655809761 0.022048801182695667 -0.07234380485681309 0 0 0 0
1315136530 0.06435834138727861 0.09705833226548746 0.021961179520576416 -0.072336980715378 0 0 0 0
1317617920 0.0657422683336248 0.09529697270620564 0.020375070415997162 -0.07284850901453982 0 0 0 0
1320099310 0.06861842241411009 0.09278980520310436 0.02035609766395458 -0.07267641642277853 0 0 0 0
1322580700 0.06846162635656501 0.09355823356152 0.0204339555368522 -0.07308398485440144 0 0 0 0
1325062090 0.0693353123926515 0.09175044419732473 0.020400113288849837 -0.0733749250362154 0 0 0 0
1327543480 0.06805233681486268 0.09308185379581957 0.01924420554365395 -0.07354397471792201 0 0 0 0
1330024870 0.06751207512914802 0.09395726850673232 0.02059943356621875 -0.0736290781796078 0 0 0 0
1332506260 0.06958422186200072 0.09304486975145196 0.0199090803871795 -0.07400171023636862 0 0 0 0
1334987650 0.0704528136598555 0.0917106584767268 0.01872338872439244 -0.07428493379446902 0 0 0 0
1337469040 0.07176296271634286 0.09050197432802987 0.01861306495964643 -0.07419538747607597 0 0 0 0
1339950430 0.0711396210258079 0.09097645734542033 0.017588964356992306 -0.07469536974372565 0 0 0 0
1342431820 0.06922220910217897 0.09204692728796643 0.018254407279605474 -0.07483506635616803 0 0 0 0
1344913210 0.0723069030643305 0.08984918593067329 0.017223958933188073 -0.07513498710137673 0 0 0 0
1347394600 0.07040676154918589 0.09022099541972725 0.016845330061727525 -0.07562064669711424 0 0 0 0
1349875990 0.07435711152479074 0.08819952744025036 0.01623953056878588 -0.07559114720624388 0 0 0 0
1352357380 0.07136277570095323 0.08894335546728577 0.016649513411600415 -0.07568300730529318 0 0 0 0
1354838770 0.07468686402080503 0.08675127657886718 0.015273893338800103 -0.07580003021911395 0 0 0 0
1357320160 0.07472839374454843 0.08721661162984345 0.016874569076547295 -0.07628603503333048 0 0 0 0
1359801550 0.08153725440401485 0.08489311492496182 0.015011294015758254 -0.07627012806276559 0 0 0 0
1362282940 0.07584102203367893 0.08600114040900611 0.015404689582982677 -0.0763613784650383 0 0 0 0
1364764330 0.07389559386931673 0.08680874806292088 0.01461518053120025 -0.07697940576386518 0 0 0 0
1367245720 0.07532837207572418 0.08447463086301708 0.013908221927219293 -0.07716473180780445 0 0 0 0
1369727110 0.07688740329357417 0.08464966571485834 0.014666645093082869 -0.07724725931101979 0 0 0 0
1372208500 0.07806074664940384 0.08437830983934588 0.01476564459026053 -0.07732333074626088 0 0 0 0
1374689890 0.0780281134220085 0.08428832146331822 0.014508611448462811 -0.07766906554429819 0 0 0 0
1377171280 0.07880892213227489 0.08355891706226357 0.012520726498115028 -0.0781291540986437 0 0 0 0
1379652670 0.07695619012217865 0.08335438222179728 0.013012285415164013 -0.07824132137906593 0 0 0 0
1382134060 0.08117554596840086 0.08205130959557048 0.012673205581975109 -0.07866035994235646 0 0 0 0
1384615450 0.07985763512069934 0.0821664534627238 0.012219270557663907 -0.078664757886035 0 0 0 0
1387096840 0.07910947903260943 0.0806223230961858 0.012873560845402494 -0.07842524050126141 0 0 0 0
1389578230 0.08471832711030582 0.07983954031702213 0.011673086801393546 -0.07900933759184747 0 0 0 0
1392059620 0.07706557834613956 0.08045005578609826 0.013055527976491043 -0.07899319886118243 0 0 0 0
1394541010 0.07890325863646216 0.07853274928223265 0.010714222004805225 -0.07973607965728045 0 0 0 0
1397022400 0.08628960496704717 0.07734038366061911 0.00873736733848171 -0.07975357845512354 0 0 0 0
1399503790 0.08271063493630129 0.07803168280557062 0.009602863558369387 -0.07999480232300318 0 0 0 0
1401985180 0.08423875167100336 0.07811145998092264 0.009377343812983956 -0.08007442603374816 0 0 0 0
1404466570 0.08193268661756276 0.07631016422145441 0.009994234762192637 -0.08009190157481522 0 0 0 0
1406947960 0.08530153199128902 0.0755020154586495 0.009753222504464639 -0.08038629521916953 0 0 0 0
1409429350 0.08178064775224686 0.07387000274668357 0.009440110456159974 -0.08056496612556262 0 0 0 0
1411910740 0.08039374711333559 0.07335197652939283 0.008084055868402249 -0.08087798940071027 0 0 0 0
1414392130 0.08582532806193835 0.07524639700634886 0.009449651572434442 -0.08106377173916189 0 0 0 0
1416873520 0.08429288419225976 0.0722536693558672 0.006583684328380931 -0.08123853127876071 0 0 0 0
1419354910 0.08790415000764167 0.07354085331247527 0.007243630652448355 -0.08171083093049117 0 0 0 0
1421836300 0.0841771708196204 0.07213610994477755 0.00888215192316341 -0.08133608635713438 0 0 0 0
1424317690 0.08481764426655171 0.07067598741644017 0.00755629089258095 -0.08172925776588257 0 0 0 0
1426799080 0.08659471221792207 0.07140529382115265 0.006878968262366481 -0.08189081893910735 0 0 0 0
1429280470 0.08645803461184584 0.07216440531219502 0.005762811283310729 -0.08163210865130864 0 0 0 0
1431761860 0.08554087034365489 0.0705638179378775 0.004977075227086654 -0.08215387518133625 0 0 0 0
1434243250 0.08638419669592712 0.06946601724703252 0.005677166097712833 -0.08261031376060184 0 0 0 0
1436724640 0.08549620774797335 0.06761441669578147 0.004985010978092035 -0.08246018688804982 0 0 0 0
1439206030 0.08674563043663881 0.06730568732000601 0.003573111445394663 -0.08292830581289536 0 0 0 0
1441687420 0.0862926415846445 0.06596166579827799 0.005197449344411586 -0.08305782649017024 0 0 0 0
1444168810 0.08878356439239571 0.0674988570073056 0.004739208520527033 -0.08313303686490846 0 0 0 0
1446650200 0.08594163467770154 0.06462846041508628 0.004855649628536942 -0.08343298788786249 0 0 0 0
1449131590 0.08835000535542083 0.06460291535317463 0.003556621723749114 -0.0833734114630703 0 0 0 0
1451612980 0.08879341948387187 0.06563586544380864 0.0032186054513909873 -0.08334894777221541 0 0 0 0
1454094370 0.08670232420897987 0.06103527408814932 0.0020691034079732616 -0.08372067015864047 0 0 0 0
1456575760 0.08791227762593412 0.06442345161113613 0.004193679364147119 -0.08354287732263031 0 0 0 0
1459057150 0.09038745989734207 0.06416287274270274 0.0020208931616056474 -0.08425540334862026 0 0 0 0
1461538540 0.08842552973239223 0.05870239641985201 0.0012347576909065494 -0.08418076306837954 0 0 0 0
1464019930 0.08928586127161359 0.059159200676668876 0.001752372230683328 -0.08513348415899565 0 0 0 0
1466501320 0.09118033558100404 0.06257109386097495 0.00010737683153776403 -0.08457522294824522 0 0 0 0
1468982710 0.08865944215611406 0.05592266108707587 0.0011475038179307555 -0.08463708881662602 0 0 0 0
1471464100 0.08976443247101162 0.05796208421826056 0.0003809546491512719 -0.08482125791034671 0 0 0 0
1473945490 0.08879712553380928 0.057802860859183625 0.00033551510912652817 -0.08518576160524481 0 0 0 0
1476426880 0.08996624751194549 0.05954482156637184 -0.00116792329990653 -0.08506423428084162 0 0 0 0
1478908270 0.09024657710042405 0.05797277845063249 0.0009196520485997498 -0.08510963540766957 0 0 0 0
1481389660 0.09069204204832637 0.05463305726125755 -0.001680809169186543 -0.0850542815986129 0 0 0 0
1483871050 0.0902244415912317 0.05390085708870943 -0.000579830121691166 -0.0854454152854993 0 0 0 0
1486352440 0.09070682409640882 0.05274417343076077 -0.0018320046590877925 -0.08540610187721774 0 0 0 0
1488833830 0.09093901118312761 0.05482578335241415 -0.0027951932854519443 -0.08592103089998739 0 0 0 0
1491315220 0.0899723003073684 0.05232804342491363 -0.0017347849705443231 -0.0857660864239752 0 0 0 0
1493796610 0.09041647820239665 0.050127262561656435 -0.003087202430630927 -0.08555790922982967 0 0 0 0
1496278000 0.09020243474695028 0.05110944339963413 -0.002575519065524329 -0.08550403875543253 0 0 0 0
1498759390 0.09171963485898553 0.047364381885527274 -0.0034495445456713364 -0.08623304472523953 0 0 0 0
1501240780 0.08923807643424428 0.046529771523907706 -0.004219817394486426 -0.08605345341431876 0 0 0 0
1503722170 0.09162722283282475 0.04923500327314434 -0.004334846333444992 -0.08633434948241572 0 0 0 0
1506203560 0.09004547739072707 0.04900044864703088 -0.004012555336902302 -0.08644361331596827 0 0 0 0
1508684950 0.09000992284025167 0.04942172599957426 -0.004847618474291181 -0.08632566451892253 0 0 0 0
1511166340 0.09085434235399346 0.04416545976321258 -0.004734929921099043 -0.0863195397095365 0 0 0 0
1513647730 0.09100322101247242 0.0433812963580876 -0.006736814226138544 -0.0860303770394333 0 0 0 0
1516129120 0.09054988791310242 0.04293627333597412 -0.005137271176914413 -0.08685935257294558 0 0 0 0
1518610510 0.09138605230658216 0.04118112105244396 -0.007181019042979659 -0.08640663295007152 0 0 0 0
1521091900 0.0895385777956556 0.04452282092130917 -0.0064605428904296325 -0.08718166269027411 0 0 0 0
1523573290 0.09102347651633268 0.040807771069316455 -0.005667640678645681 -0.08734248299588887 0 0 0 0
1526054680 0.09188039913364603 0.03544780835246587 -0.005799014815530138 -0.08751372475606366 0 0 0 0
1528536070 0.09130028197809241 0.03849723411276578 -0.007304825709445943 -0.08790492918036392 0 0 0 0
1531017460 0.0901937256663772 0.03847193087681191 -0.006644084394933499 -0.08770668193849153 0 0 0 0
1533498850 0.09037775429757494 0.03697388275416058 -0.007084812588774971 -0.08798786421493844 0 0 0 0
1535980240 0.09181424219834676 0.03469149794943337 -0.0074887883282567505 -0.08897613706740598 0 0 0 0
1538461630 0.09035289933557938 0.034640551538954796 -0.009362201496218714 -0.08811663271917644 0 0 0 0
1540943020 0.08869191527535407 0.03587072914427138 -0.007188804850463872 -0.08870439970042994 0 0 0 0
1543424410 0.09062479181291766 0.03251544451581892 -0.00866374074771414 -0.08860589838296586 0 0 0 0
1545905800 0.0880483793274076 0.036591730972924494 -0.009448847129684627 -0.0891066241268682 0 0 0 0
1548387190 0.08716029542528043 0.03441581909759448 -0.008394792523585047 -0.08911416031253351 0 0 0 0
1550868580 0.08941143209843518 0.0313915440924164 -0.009971159954235321 -0.08926702768271622 0 0 0 0
1553349970 0.09024532021687443 0.02863445220084105 -0.009756061049633322 -0.0895506095757394 0 0 0 0
1555831360 0.08604301466993926 0.03212700137594463 -0.009388817354542365 -0.09010848170270336 0 0 0 0
1558312750 0.08673935327485764 0.031363946275826095 -0.009321715122406822 -0.09051725259298603 0 0 0 0
1560794140 0.0935863959568441 0.025202866030893167 -0.009378827848515606 -0.09045835004119683 0 0 0 0
1563275530 0.08827950725577428 0.027267378340531456 -0.011722312292170155 -0.09049867027439319 0 0 0 0
1565756920 0.08899906040994325 0.02642408227180446 -0.012676757044504569 -0.09075155488948275 0 0 0 0
1568238310 0.08489640629286199 0.02848936791626568 -0.010942638026126167 -0.091359549330753 0 0 0 0
1570719700 0.08910246371358042 0.0237059895385324 -0.011889094109346377 -0.0914568632272461 0 0 0 0
1573201090 0.08455409991076285 0.025966044589159566 -0.011396745532710533 -0.09211175868243891 0 0 0 0
1575682480 0.08701841033236478 0.02332946880195059 -0.010777697400245808 -0.09243399875855869 0 0 0 0
1578163870 0.08481596253229363 0.02484798390351147 -0.012752154775626584 -0.09243628826349483 0 0 0 0
1580645260 0.0858763227101904 0.024398814995306443 -0.012813992607368398 -0.09257968254644953 0 0 0 0
1583126650 0.08516269222594978 0.02360098807155104 -0.013256586135026602 -0.09336658140413984 0 0 0 0
1585608040 0.08576837779070874 0.021949373046549973 -0.013417318548604354 -0.09327029625139716 0 0 0 0
1588089430 0.08727126467868891 0.02167760903602181 -0.015893894004589536 -0.09353700292195895 0 0 0 0
1590570820 0.08593065172379316 0.02057643998368339 -0.01628380351691785 -0.09355046429685689 0 0 0 0
1593052210 0.0821729746039163 0.021537026430831455 -0.013061312706525198 -0.0949415330581081 0 0 0 0
1595533600 0.08377025355582404 0.02024792226137826 -0.015502457750723713 -0.09471509217937753 0 0 0 0
1598014990 0.08279965803100227 0.020254446774074588 -0.017372829468674824 -0.09513524300615335 0 0 0 0
1600496380 0.0831666968456077 0.01931520068183458 -0.016474836215126253 -0.09487550243560727 0 0 0 0
1602977770 0.08083239407943256 0.01985456018319282 -0.01878438743161746 -0.0953150469986006 0 0 0 0
1605459160 0.09347734093022715 0.01781751720746794 -0.017307423381545874 -0.0957823298477815 0 0 0 0
1607940550 0.08287229987205076 0.01772124175123228 -0.018983227413821444 -0.09600750907098418 0 0 0 0
1610421940 0.08476014634810278 0.017652468253363675 -0.017878580199122182 -0.09637138839139021 0 0 0 0
1612903330 0.08368474648822985 0.017783056556857614 -0.017186333911149997 -0.09713805805976182 0 0 0 0
1615384720 0.08517702973192298 0.017204248725546174 -0.018815396037961132 -0.09704334161337141 0 0 0 0
1617866110 0.08092118055606097 0.016179813891327187 -0.017634529203766118 -0.09732839556954452 0 0 0 0
1620347500 0.08582085493226882 0.016535736395939006 -0.020714752182270462 -0.09744043603797962 0 0 0 0
1622828890 0.07634525562637201 0.014434704959913114 -0.02095332081311009 -0.09798542517425267 0 0 0 0
1625310280 0.07798004344891225 0.014328622272809198 -0.021169224616252532 -0.09823125478476155 0 0 0 0
1627791670 0.08207387054625946 0.014900552252127674 -0.02233462938552992 -0.09845694204156623 0 0 0 0
1630273060 0.08192011019591323 0.013461011015363749 -0.021875684980574597 -0.09877550742915396 0 0 0 0
1632754450 0.08340656790705377 0.013595442647594182 -0.023427535545026416 -0.09864323284262695 0 0 0 0
1635235840 0.08036454654291471 0.013706563232965032 -0.02615192494822629 -0.09881904355117696 0 0 0 0
1637717230 0.08134202193823692 0.012289731710793079 -0.024534283631794697 -0.09945078519094736 0 0 0 0
1640198620 0.08345078015070162 0.013383033756492253 -0.02387613727919602 -0.09996142029616176 0 0 0 0
1642680010 0.07894136743714311 0.011249549025864796 -0.025636363263618917 -0.10016220726189737 0 0 0 0
1645161400 0.0866839286103241 0.014106775476381252 -0.027389647701890632 -0.09945156697002423 0 0 0 0
1647642790 0.07797128746137608 0.011151315141003086 -0.02781972546912476 -0.09981790387330226 0 0 0 0
1650124180 0.08007824544777523 0.011183774928876863 -0.02675641052725431 -0.10084505362076596 0 0 0 0
1652605570 0.07467715527417602 0.00636229451335739 -0.02863047686912846 -0.10018295069264552 0 0 0 0
1655086960 0.07937863615456396 0.009133146761727108 -0.028230982520391863 -0.10113744657504696 0 0 0 0
1657568350 0.07364508576283979 0.005608418094075617 -0.029220433778691345 -0.10130174892576357 0 0 0 0
1660049740 0.07803582147260643 0.009891923463824318 -0.02899869356395946 -0.10180968857096415 0 0 0 0
1662531130 0.07709626108625384 0.008894824181278982 -0.03027316123876027 -0.10144706311797375 0 0 0 0
1665012520 0.07559238624879557 0.007010636700801461 -0.02885264001396705 -0.10294168991926675 0 0 0 0
1667493910 0.07547105731665243 0.0069109580190352595 -0.031383521684123956 -0.1020027696550293 0 0 0 0
1669975300 0.07438469076338897 0.004848254156383947 -0.03392771887683133 -0.10200332254837872 0 0 0 0
1672456690 0.07265792397128475 0.004118631895641248 -0.032859497285833365 -0.10296218199447023 0 0 0 0
1674938080 0.07400334562845338 0.005747863545867046 -0.03492664666377519 -0.10297906836458111 0 0 0 0
1677419470 0.07355414166693375 0.004307466164084772 -0.035315032493959876 -0.1030146235433539 0 0 0 0
1679900860 0.07335270871539235 0.005099670230825439 -0.0342040559557948 -0.10342951047625445 0 0 0 0
1682382250 0.07562878948393438 0.007856339834748456 -0.033165957354421495 -0.10427398648811104 0 0 0 0
1684863640 0.07452592985452118 0.006041199402765421 -0.03719564800842193 -0.10318134827839795 0 0 0 0
1687345030 0.07496117890780847 0.007025400084426437 -0.03662599304695575 -0.10399825584171335 0 0 0 0
1689826420 0.07159568200450735 0.0018439350993557982 -0.03679109532428889 -0.10439217751327656 0 0 0 0
1692307810 0.07419880711975359 0.006467135128181447 -0.03704740306028425 -0.10531885704297236 0 0 0 0
1694789200 0.07281425243445379 0.003977575525782639 -0.039603978602514245 -0.10353330344212304 0 0 0 0
1697270590 0.07341073180205615 0.005472161526245233 -0.03846569590884324 -0.10512017208295235 0 0 0 0
1699751980 0.07262849444784737 0.006472522234102376 -0.03778821480785095 -0.10546865751032738 0 0 0 0
1702233370 0.07175969148092805 0.003932813885024828 -0.0387883093388298 -0.10553820785820577 0 0 0 0
1704714760 0.07110970405880788 0.0028169175773132375 -0.04094869958459693 -0.10510774643036423 0 0 0 0
1707196150 0.07291420421062579 0.009413085827007889 -0.042477704917903286 -0.10463531487410797 0 0 0 0
1709677540 0.0707974494722004 0.0019379999658196139 -0.04297024936796676 -0.10526531339462636 0 0 0 0
1712158930 0.07034959112815754 0.0012167811093339084 -0.04285351358793824 -0.10574579301890892 0 0 0 0
1714640320 0.07002211483118936 0.002084761592634433 -0.04448010532451046 -0.10524160294374531 0 0 0 0
1717121710 0.07114464778019026 0.009192436423335261 -0.04344996126448322 -0.10652217102650254 0 0 0 0
1719603100 0.07050013542673514 0.005356707326222394 -0.04386576460882197 -0.10623457880169787 0 0 0 0
1722084490 0.06895569570808643 0.0019540240044208573 -0.048910550760729 -0.10486032034269334 0 0 0 0
1724565880 0.06968676671063762 0.006052946652627793 -0.04655357647404958 -0.10644593027915167 0 0 0 0
1727047270 0.06852721583051022 -0.002488240986826856 -0.047914215183069986 -0.10604649507526574 0 0 0 0
1729528660 0.06820516837551623 -0.00021984829473773907 -0.049713872840599464 -0.1063307007984087 0 0 0 0
1732010050 0.06807852854534636 0.002003354482252029 -0.05100337971070109 -0.10573241957287197 0 0 0 0
1734491440 0.06821193271686103 -0.0013015835850975898 -0.051209352768960784 -0.10641704444474594 0 0 0 0
1736972830 0.06751758144950908 0.0009415104082237064 -0.05219188337960742 -0.10617070189290863 0 0 0 0
1739454220 0.06665633741274934 0.0005733832896652463 -0.05262009542981928 -0.10709671935257108 0 0 0 0
1741935610 0.06689766845570261 -0.0009154373142855366 -0.05382226614141349 -0.1065253805581559 0 0 0 0
1744417000 0.066474359419063 0.002489912017711524 -0.05311640768599729 -0.10678728484057158 0 0 0 0
1746898390 0.06490695384545019 0.004853370041321123 -0.05374041999062761 -0.10666090104665014 0 0 0 0
1749379780 0.06490560596502325 -0.0003490779567531432 -0.05586359047481662 -0.10633366749139914 0 0 0 0
1751861170 0.06525639570610275 -0.002374842052276909 -0.056939054293722494 -0.10680985988892168 0 0 0 0
1754342560 0.06545076898521832 0.0020095960487640143 -0.05653497618543765 -0.10722561314084877 0 0 0 0
1756823950 0.06495523944100264 7.86175696082342e-05 -0.0600673161658577 -0.1056116850057715 0 0 0 0
1759305340 0.0623607938234536 0.005761894778604431 -0.05805186832729792 -0.10751772179726471 0 0 0 0
1761786730 0.06337104259338674 0.0016115420210493301 -0.05890543998394702 -0.10688093917476545 0 0 0 0
1764268120 0.0672914724467446 -0.005542256416944529 -0.05994130748630673 -0.10736348949866314 0 0 0 0
1766749510 0.06337902207987327 0.00189526356157052 -0.05993585784713948 -0.10754973405269054 0 0 0 0
1769230900 0.06429180498451555 -0.00040097586345521865 -0.0626049282041949 -0.10674197639195837 0 0 0 0
1771712290 0.06407158087994266 -0.0016370091145016612 -0.0635180679026917 -0.10679164615479846 0 0 0 0
1774193680 0.062063638949404296 0.0015074583739837872 -0.06365169745190483 -0.10657667768943367 0 0 0 0
1776675070 0.06531315867062663 -0.004630602286159317 -0.06657735179249485 -0.10603336491428439 0 0 0 0
1779156460 0.06480596718029336 -0.0014731250128695386 -0.06485558459409997 -0.10692614107504136 0 0 0 0
1781637850 0.06301731332718861 -0.0018270869625455729 -0.06674307963221154 -0.10650554618814644 0 0 0 0
1784119240 0.06403547142038944 -0.001145733686616981 -0.06631407181305819 -0.10716381875056741 0 0 0 0
1786600630 0.06246108610342037 -0.00031185277603164183 -0.06975753329608178 -0.10547518800855235 0 0 0 0
1789082020 0.060986208627910335 0.000586676297162885 -0.07044776750080699 -0.10542445746259212 0 0 0 0
1791563410 0.05927552005843183 0.0014040190586138786 -0.06880090804650284 -0.10649376295250396 0 0 0 0
1794044800 0.06023041481791545 0.0018457470812410272 -0.07053368457870457 -0.10580241360824566 0 0 0 0
1796526190 0.06252514041828562 -0.00255489592317096 -0.07213561249468926 -0.10612322813825108 0 0 0 0
1799007580 0.05954663590786015 0.00039324787782274906 -0.072673644102589 -0.10601767140707893 0 0 0 0
1801488970 0.055851006346974374 0.0036788759325932945 -0.07628259576044456 -0.1029961570878605 0 0 0 0
1803970360 0.05883492756998761 0.002001206345992075 -0.07409416117059735 -0.10532770282066174 0 0 0 0
1806451750 0.06276432963567131 -0.0017246845810187656 -0.07532814558292956 -0.1056391417773323 0 0 0 0
1808933140 0.0641308723011251 -0.002572656634337102 -0.07710298515775747 -0.10453547099768351 0 0 0 0
1811414530 0.06338657724755045 -0.0025542452624497764 -0.07546218745465232 -0.10604676390876316 0 0 0 0
1813895920 0.05728732288315112 0.0008257200072085523 -0.07822870523671042 -0.10469349229217699 0 0 0 0
1816377310 0.06019011400749973 -0.00041146859146028576 -0.08034445055711222 -0.10347595752778661 0 0 0 0
1818858700 0.05848582203399097 -0.0003577308641738456 -0.07849738042591863 -0.10485583785385744 0 0 0 0
1821340090 0.05808475477877879 -0.0004570668694329839 -0.08174980219188879 -0.10301674003902592 0 0 0 0
1823821480 0.06217025267321912 -0.001635043996796945 -0.08230977116736668 -0.10261052651964787 0 0 0 0
1826302870 0.060696265960560165 -0.0012871309439431585 -0.0817310931029325 -0.10409131463978134 0 0 0 0
1828784260 0.05857242286272175 -0.0016267254921916035 -0.08442870915723409 -0.10206705236168724 0 0 0 0
1831265650 0.06064885795364725 -0.0022163791097237575 -0.08481739519733526 -0.10199928145604265 0 0 0 0
1833747040 0.05597323461066785 8.365621100121545e-06 -0.0847263992198892 -0.10139134599897918 0 0 0 0
1836228430 0.0568249655696543 0.00012623323284571795 -0.08575799556169815 -0.1018372190893029 0 0 0 0
1838709820 0.06284448248659567 -0.0022722926420180546 -0.08803419365953467 -0.10045826411197842 0 0 0 0
1841191210 0.05842895432791874 -0.0015121253729734896 -0.0883767344753326 -0.10074839835924874 0 0 0 0
1843672600 0.059383042953852064 0.00029713796897731966 -0.08769036881341624 -0.10036918964751958 0 0 0 0
1846153990 0.0552602745302287 -0.0009129077464335539 -0.08892000053255927 -0.10021363618259017 0 0 0 0
1848635380 0.060582675136481884 -0.0005451218793683505 -0.08952278885172686 -0.10067064580665802 0 0 0 0
1851116770 0.061402741941852836 -0.002451751342695046 -0.08957369200873605 -0.10039563471142336 0 0 0 0
1853598160 0.06095714688555435 -0.0020475479435499142 -0.09398263280436996 -0.09687658409042438 0 0 0 0
1856079550 0.0579474215503836 -0.0030952779290946263 -0.09291006932144204 -0.09866662001296243 0 0 0 0
1858560940 0.06296850300147762 -0.0016406990878362207 -0.09096375541713855 -0.10004044973648742 0 0 0 0
1861042330 0.06348193392784018 -0.0009890690381985723 -0.09149687121527363 -0.10021101787107711 0 0 0 0
1863523720 0.062428742688882544 -0.0005913589084326349 -0.09363481664110218 -0.09823839562067677 0 0 0 0
1866005110 0.061410298267401256 -0.0018761875760487162 -0.09565447906520116 -0.09773494514647878 0 0 0 0
1868486500 0.060190520567864766 -0.0029807828713505667 -0.09573859106845338 -0.09718542790564995 0 0 0 0
1870967890 0.05922223370580464 -0.0027316906774555866 -0.09810660342059746 -0.09569448950568885 0 0 0 0
1873449280 0.05762412417957447 -0.0019935024082206676 -0.09772104433996084 -0.09587816968636023 0 0 0 0
1875930670 0.05856188783712764 -0.00287491402643883 -0.0983937959214613 -0.09580937655533146 0 0 0 0
1878412060 0.058558931871291194 -0.0010765173670963734 -0.1005747290472501 -0.09351054907513748 0 0 0 0
1880893450 0.05785549961447915 -0.0021617313961054233 -0.10091987090830977 -0.09381833347789731 0 0 0 0
1883374840 0.05804978721077144 -0.0032170982071744536 -0.10178164628601825 -0.09347519014359434 0 0 0 0
1885856230 0.05892839811328005 -0.002536397828429994 -0.10200798576240439 -0.09401785927081806 0 0 0 0
1888337620 0.06250449787939455 -0.0020887010943397284 -0.10523496369544681 -0.0911362229771612 0 0 0 0
1890819010 0.06068134670806052 -0.0024189939682125274 -0.10259073246670752 -0.0942156378317535 0 0 0 0
1893300400 0.061658499821746766 -0.0010936231320605877 -0.10288236097676638 -0.09417773530797272 0 0 0 0
1895781790 0.058991691089346425 -0.0016332469492683426 -0.10483375297188478 -0.09153676689397325 0 0 0 0
1898263180 0.054345258653339786 -0.006127052097419009 -0.10428592049771283 -0.09359545607591098 0 0 0 0
1900744570 0.06110820703370849 -0.00044148405090466044 -0.10705256846468954 -0.09022969611090838 0 0 0 0
1903225960 0.05959931450768375 -0.0032328817474181117 -0.10553240442927611 -0.0921081928360226 0 0 0 0
1905707350 0.0578478866953191 -0.004916380145788903 -0.1085637696452654 -0.08994245902948365 0 0 0 0
1908188740 0.06284868757530958 -0.002278976566423694 -0.10845287104669073 -0.0902842907553879 0 0 0 0
1910670130 0.05837173743798558 -0.002701342028178863 -0.10774554233479056 -0.09091304378806321 0 0 0 0
1913151520 0.06004421467848115 -0.0028206030799546047 -0.1107586953848722 -0.08726527866631584 0 0 0 0
1915632910 0.05667156159212209 -0.005744010237101909 -0.11055618689317206 -0.08825848989541854 0 0 0 0
1918114300 0.055941384481424154 -0.009518076015193572 -0.11110255108222084 -0.08813490896190353 0 0 0 0
1920595690 0.059107431743249936 -0.004350473499950739 -0.1113993311941257 -0.08844896142909257 0 0 0 0
1923077080 0.06365970208610987 -0.0024850252691386602 -0.11409702698760027 -0.08505825212581694 0 0 0 0
1925558470 0.0630861739379073 -0.0009168799631796615 -0.11179335078976933 -0.0886834624201887 0 0 0 0
1928039860 0.06469254385863016 -0.00047971036092864185 -0.11324553099038218 -0.08709998311796754 0 0 0 0
1930521250 0.055630693636396694 -0.008058591464030615 -0.11544077620191986 -0.08455241125013148 0 0 0 0
1933002640 0.05862014480640585 -0.007113065620895468 -0.11592361147478561 -0.08338685906348105 0 0 0 0
1935484030 0.058284694082151915 -0.007414229140201425 -0.11746086086854589 -0.08189623147235331 0 0 0 0
1937965420 0.056172288063409764 -0.005562041826865078 -0.11897559007625685 -0.08056417374885025 0 0 0 0
1940446810 0.06113077273086094 -0.009943561279234021 -0.11620270500521875 -0.0852476951052757 0 0 0 0
1942928200 0.06373409783308473 0.0009158605106790527 -0.11839085012999245 -0.0821596781851573 0 0 0 0
1945409590 0.06092711945914873 -0.004878854450211088 -0.1187101550801831 -0.08149458126849882 0 0 0 0
1947890980 0.06234176780104362 -0.0016965293770852933 -0.11765312254228055 -0.08334911423696358 0 0 0 0
1950372370 0.0598389325178971 -0.005072693264726483 -0.11990699957090148 -0.08091604084818443 0 0 0 0
1952853760 0.062089581373453 -0.0021221741869665157 -0.1208704687932496 -0.08028925125910483 0 0 0 0
1955335150 0.05683974800446329 -0.011380833492117425 -0.12181391596970982 -0.07885243312951833 0 0 0 0
1957816540 0.0625985601752096 -0.007373400939161962 -0.12322767372775563 -0.0773091453724623 0 0 0 0
1960297930 0.058835739021746894 -0.008913314688864289 -0.12440485952045933 -0.07636962991403831 0 0 0 0
1962779320 0.059355054324387126 -0.009147060378436756 -0.12390580426197435 -0.07678269197548086 0 0 0 0
1965260710 0.06100508328930263 -0.008252851171743103 -0.12325334956783601 -0.0790567089645956 0 0 0 0
1967742100 0.06132793687261841 -0.008358987077490582 -0.12297313665265029 -0.07804387575201331 0 0 0 0
1970223490 0.059617646147198666 -0.011340999425504986 -0.12649567290675146 -0.0732479237546743 0 0 0 0
1972704880 0.06000240610087416 -0.008876921406628055 -0.12643272540220912 -0.0755694123817337 0 0 0 0
1975186270 0.061187704292500075 -0.015056632458076577 -0.12598800132824176 -0.0762974797200707 0 0 0 0
1977667660 0.06017315423252802 -0.007692154614088677 -0.12580909820501857 -0.07634439955970425 0 0 0 0
1980149050 0.06228302795733815 -0.011608652020968724 -0.12774671746860283 -0.07359979632890155 0 0 0 0
1982630440 0.06372848076914817 -0.012858225828123153 -0.12738325778950904 -0.07464861516101536 0 0 0 0
1985111830 0.0633640183519381 -0.014187548523999382 -0.12809418579801604 -0.07394064815807758 0 0 0 0
1987593220 0.05964002822047754 -0.012584027640839665 -0.1293877227627696 -0.07329851831239796 0 0 0 0
1990074610 0.06165452965330461 -0.017057296100669136 -0.12932228855343217 -0.07262211770122375 0 0 0 0
1992556000 0.06437832868331056 -0.009519946298388355 -0.13140922742789646 -0.07049148229344798 0 0 0 0
1995037390 0.06262193091298814 -0.017878195413008186 -0.13039046656555217 -0.07233302468945393 0 0 0 0
1997518780 0.06013506521593301 -0.012288977934428224 -0.13293023664325 -0.0669321162152481 0 0 0 0
2000000170 0.06031332334915153 -0.007934019274026708 -0.13342703160873248 -0.0687297523784369 0 0 0 0
