# HZ S RI R 50
1200000000 -0.2989141279024255 -0.14269485218657785 0.0033118828588307933 -0.0005619437607312948 0 0 0 0
1202729529 -0.30155865309704655 -0.12731832681435837 0.003459493957366985 -0.0006154498071076289 0 0 0 0
1205459058 -0.3068348937187258 -0.12212140689861135 0.0035243778302862126 -0.0006690849679752562 0 0 0 0
1208188587 -0.3126173818366625 -0.12017441614249051 0.0031410627065022343 -0.00014742511314649347 0 0 0 0
1210918116 -0.3180891056655576 -0.1063981117177978 0.0031090120650921617 -0.00015256319491839488 0 0 0 0
1213647645 -0.32448929627179235 -0.0989486109789007 0.0032730654321141365 -0.0003762926182518063 0 0 0 0
1216377174 -0.3285561324387035 -0.09198911966785492 0.0032771146414255947 -0.00028094985970136496 0 0 0 0
1219106703 -0.33432272622707637 -0.08183671559017687 0.0034768724879851633 -0.00034749033251743676 0 0 0 0
1221836232 -0.34019966171072513 -0.07590419764398032 0.00353216054364561 -0.00045210140659323103 0 0 0 0
1224565761 -0.3428292349468801 -0.07164356570243213 0.0036846129172099043 -0.0005259566725167106 0 0 0 0
1227295290 -0.34818192535379283 -0.06146635217435853 0.0038072639806629094 -0.0006490111564585732 0 0 0 0
1230024819 -0.3532417330770541 -0.050334834013975746 0.003975809869592081 -0.0008484262167662161 0 0 0 0
1232754348 -0.35574446857251985 -0.04453945721501609 0.00419217953088665 -0.0008882629231277741 0 0 0 0
1235483877 -0.3613737652498041 -0.033675623844619855 0.004191097374265468 -0.0009611444660891489 0 0 0 0
1238213406 -0.36406707503901475 -0.02260449611489869 0.004357207930302808 -0.0012050285881682419 0 0 0 0
1240942935 -0.36731353290003765 -0.019663702131203165 0.004401383189050101 -0.0012026384299790144 0 0 0 0
1243672464 -0.37147588561751604 -0.01229263710371982 0.004524897279889413 -0.0013348296690875268 0 0 0 0
1246401993 -0.3750569580049956 -0.00044348240560947464 0.004561833255369777 -0.001495144495976121 0 0 0 0
1249131522 -0.3777100764067742 0.007637841780480453 0.004652709136394577 -0.0016799161882768664 0 0 0 0
1251861051 -0.37903139646978573 0.019022256053444746 0.004948102027549812 -0.0019748055419981335 0 0 0 0
1254590580 -0.38067854056452544 0.027321072453107612 0.004946146853093539 -0.0020007670662726624 0 0 0 0
1257320109 -0.3832618838721314 0.0366951704014025 0.005015761073745387 -0.002229958774377135 0 0 0 0
1260049638 -0.38476831355378216 0.05187849552678646 0.005121133670325738 -0.0026389144238005077 0 0 0 0
1262779167 -0.3861032924568943 0.05936635982389682 0.005312211780932181 -0.002673320080006756 0 0 0 0
1265508696 -0.3887523775133995 0.06712696134661712 0.00553012234904985 -0.0028935337118692114 0 0 0 0
1268238225 -0.38930592779462553 0.0822598859046352 0.005419769780301104 -0.0033255005465354158 0 0 0 0
1270967754 -0.38989384998550497 0.0933703170449231 0.005639507766688363 -0.003364484655981405 0 0 0 0
1273697283 -0.3911782146226768 0.09189960355813445 0.00561862369997236 -0.0036835752201359877 0 0 0 0
1276426812 -0.3919820139381083 0.10265980298631165 0.005821780241420375 -0.003984556086370042 0 0 0 0
1279156341 -0.39153947032997477 0.12074783275636623 0.006027030486037248 -0.004242348675210549 0 0 0 0
1281885870 -0.39104949187978283 0.13384498495054314 0.005917451007555985 -0.004613158485600197 0 0 0 0
1284615399 -0.39139987335732984 0.1363220315875873 0.006146866874685062 -0.004729946828769256 0 0 0 0
1287344928 -0.390293362072932 0.14438776417392163 0.0058577882618875525 -0.004804062473047708 0 0 0 0
1290074457 -0.3874139803838547 0.15859788264621671 0.005874047654925532 -0.005008733719093737 0 0 0 0
1292803986 -0.3878955537874417 0.16780108913949165 0.005865123806546994 -0.00517272357855482 0 0 0 0
1295533515 -0.38721828386324164 0.17708244678887936 0.006017200111238066 -0.005311592187388199 0 0 0 0
1298263044 -0.38641985123102895 0.1872872291602119 0.006179623497133825 -0.005541723574630184 0 0 0 0
1300992573 -0.38098543193563017 0.1988859232233364 0.006261739613769921 -0.0057991279172194985 0 0 0 0
1303722102 -0.3798813754711407 0.20685159957598762 0.006434198705934444 -0.006154157401493141 0 0 0 0
1306451631 -0.37991528448715856 0.20808923682631872 0.006509223279037906 -0.006363434263079203 0 0 0 0
1309181160 -0.37698313403816575 0.22566200044150184 0.006620555386776022 -0.006674604787552377 0 0 0 0
1311910689 -0.37317978948742014 0.24128896432281127 0.006604531416981188 -0.007093133247289059 0 0 0 0
1314640218 -0.36949767795035204 0.2531550941711918 0.006785141832481496 -0.007657453021913886 0 0 0 0
1317369747 -0.36379951220022927 0.2603050102084748 0.0070367342609612155 -0.00795762692995439 0 0 0 0
1320099276 -0.3584233426113597 0.2659259817483131 0.0070347067872961145 -0.008487524676814273 0 0 0 0
1322828805 -0.35696612669779504 0.27843897777118 0.007163774353644849 -0.00897474042398907 0 0 0 0
1325558334 -0.3531168425035784 0.28084701141671514 0.007314025899201492 -0.009416758685966128 0 0 0 0
1328287863 -0.34864857335672134 0.29328485745396266 0.00747087886605406 -0.009986616945141124 0 0 0 0
1331017392 -0.3484633855540915 0.29926787513659026 0.0076289191809633524 -0.010612091135357956 0 0 0 0
1333746921 -0.3391861242638058 0.3116786679248552 0.0075854025856612614 -0.011291771540782643 0 0 0 0
1336476450 -0.3318677999373187 0.3260218220989675 0.007528191501243738 -0.01190069615935291 0 0 0 0
1339205979 -0.3261486480908772 0.3291506809980901 0.007665874243581261 -0.012628750389903824 0 0 0 0
1341935508 -0.323557846453282 0.33855883884926063 0.007732063343856089 -0.013309472399945944 0 0 0 0
1344665037 -0.31311594757293126 0.35309920857489896 0.007778335457976248 -0.014071382437438945 0 0 0 0
1347394566 -0.30702299105989095 0.35740681453850626 0.007842902037746678 -0.014662514322612888 0 0 0 0
1350124095 -0.3010711688052926 0.3652141963873827 0.00800101247207928 -0.015575805108674 0 0 0 0
1352853624 -0.294218997799361 0.3765386392635431 0.0075676892658868376 -0.016358506987112508 0 0 0 0
1355583153 -0.28495605998108453 0.3813188463253215 0.007770435537234862 -0.017177936852195173 0 0 0 0
1358312682 -0.2799789624063381 0.39164639913283067 0.007431010374084011 -0.01822346784636904 0 0 0 0
1361042211 -0.27088922268913634 0.3978712319249594 0.007519429615266988 -0.019198073286885133 0 0 0 0
1363771740 -0.2596115153129477 0.40319446398391035 0.007132470721029288 -0.02040086427382064 0 0 0 0
1366501269 -0.25519379369319184 0.41030708399414173 0.007337885777594663 -0.021482829713968324 0 0 0 0
1369230798 -0.24328226266274616 0.41999733635003084 0.006509076614668354 -0.022674295964970975 0 0 0 0
1371960327 -0.2306153989670457 0.427483323429938 0.006579731220812821 -0.024024822661561262 0 0 0 0
1374689856 -0.2199882032623664 0.43260104356221774 0.006206493047196315 -0.02531878070755654 0 0 0 0
1377419385 -0.21001629466308155 0.43696189489269976 0.005360518484097236 -0.026870260706790668 0 0 0 0
1380148914 -0.2007075360236437 0.4439288870263181 0.00542662017729719 -0.028205694844919506 0 0 0 0
1382878443 -0.19339653935421505 0.44788195222120564 0.004647320061782933 -0.029777699784366528 0 0 0 0
1385607972 -0.18166532699740312 0.45473435911353416 0.00405992079127064 -0.03162354389775276 0 0 0 0
1388337501 -0.16636664236127607 0.4611812438230165 0.0035474389981650866 -0.033415773235584006 0 0 0 0
1391067030 -0.1577370218578565 0.4664548762002458 0.002274183818114753 -0.03518744298363034 0 0 0 0
1393796559 -0.14159691497341506 0.46638731329805216 0.0017187197589061747 -0.03741027077677445 0 0 0 0
1396526088 -0.12474003550477991 0.47390500171503847 -0.00022158740462974245 -0.03954462841642367 0 0 0 0
1399255617 -0.12237449856256745 0.47426568609605113 5.492433773274523e-06 -0.04146275411008457 0 0 0 0
1401985146 -0.10467500596880733 0.4824459998514551 -0.002781888176590935 -0.04385175584688438 0 0 0 0
1404714675 -0.09539477826884053 0.4797430447243188 -0.00403094417486624 -0.04639051360827764 0 0 0 0
1407444204 -0.07531040389599897 0.48406838347244285 -0.005274366677389019 -0.04907355197982496 0 0 0 0
1410173733 -0.061641071308276216 0.48438494957696343 -0.00839428656935129 -0.05159972451881108 0 0 0 0
1412903262 -0.05105138364684209 0.48590845166568536 -0.010947799795938254 -0.054276134655435265 0 0 0 0
1415632791 -0.030405157033634233 0.48685435150288237 -0.014612695528565733 -0.05753986201081381 0 0 0 0
1418362320 -0.014673970145992922 0.48529382550321964 -0.01775337337346866 -0.060328649186695976 0 0 0 0
1421091849 -0.00013895436428616352 0.48444602495387545 -0.021257213519881045 -0.06348786930031207 0 0 0 0
1423821378 0.013390748700508508 0.48024126822146784 -0.02486050641270462 -0.06663159783473818 0 0 0 0
1426550907 0.03166263421689636 0.4782131508648438 -0.029145667024935987 -0.07027315717312799 0 0 0 0
1429280436 0.04094459147728212 0.4737678759416631 -0.03485487157209291 -0.07315861875743974 0 0 0 0
1432009965 0.05233528319197577 0.46931652931569795 -0.040081611183600374 -0.07648280600654304 0 0 0 0
1434739494 0.07932191291230152 0.4626454688195813 -0.048396042658670695 -0.07902334639401665 0 0 0 0
1437469023 0.08883959048689469 0.4536019723584339 -0.052811069992568405 -0.08307013073131098 0 0 0 0
1440198552 0.10748502459760646 0.45265048599032043 -0.06386596815636605 -0.08493380271451086 0 0 0 0
1442928081 0.12246408429893242 0.4370153705744585 -0.07102618764785161 -0.08826159939315766 0 0 0 0
1445657610 0.13349105212321646 0.42701943075996346 -0.08325743291176942 -0.08839067928741628 0 0 0 0
1448387139 0.1543839844509733 0.417321327455551 -0.09509210204681251 -0.08974969942389675 0 0 0 0
1451116668 0.1674347975114204 0.4032735642655148 -0.10826802373472406 -0.08972165326708528 0 0 0 0
1453846197 0.18681255372627065 0.38305439780538625 -0.12231959099514593 -0.08806228536315752 0 0 0 0
1456575726 0.20106575248762418 0.3732327362740536 -0.13774251869274 -0.08401711319116459 0 0 0 0
1459305255 0.21121839615851642 0.3553843610414501 -0.1534792792779579 -0.08280097344682112 0 0 0 0
1462034784 0.2207148850092041 0.33510392769900205 -0.1727587709337477 -0.07213593614484723 0 0 0 0
1464764313 0.22808974076975227 0.312869382685337 -0.18891965642812222 -0.06733495789253566 0 0 0 0
1467493842 0.23147249296276853 0.2936328790892972 -0.20735315845059543 -0.05661089148370087 0 0 0 0
1470223371 0.24241482070118886 0.2751838295118716 -0.22708427357445027 -0.040480760664667145 0 0 0 0
1472952900 0.24298681309162143 0.24553479204432077 -0.24569868772080133 -0.021562396287838376 0 0 0 0
1475682429 0.2423084541109179 0.2269592321755123 -0.2628836079663827 -0.0005743107732036736 0 0 0 0
1478411958 0.23692076360130399 0.19751990603604022 -0.2770546170400871 0.03112248635697954 0 0 0 0
1481141487 0.23025887049894928 0.1831264652387085 -0.2905748848611774 0.054955659631190014 0 0 0 0
1483871016 0.22257422946140007 0.15356108893564618 -0.297354610023363 0.09488787018688209 0 0 0 0
1486600545 0.21127836620240079 0.13589095148155172 -0.3022032570086261 0.129400427665499 0 0 0 0
1489330074 0.19820935930731035 0.11771704966899242 -0.30257252092694953 0.16647177117060888 0 0 0 0
1492059603 0.18531983541648497 0.10059772453455024 -0.2921090430780731 0.2124196391857946 0 0 0 0
1494789132 0.16783656716681403 0.09169496480770287 -0.2787286064129273 0.24862287232239072 0 0 0 0
1497518661 0.15128574342201248 0.08435115826050897 -0.25944901532687065 0.2874399028135096 0 0 0 0
1500248190 0.13482302521052103 0.07371336595254485 -0.23601433198400162 0.3213226917200357 0 0 0 0
1502977719 0.11850114317227194 0.0702758205329428 -0.2065350839940392 0.3524070062117167 0 0 0 0
1505707248 0.10435178673232283 0.06885993342211247 -0.17295024705848777 0.3822991541502271 0 0 0 0
1508436777 0.09030987401557154 0.0683712575314777 -0.13440610927364618 0.40709789583412626 0 0 0 0
1511166306 0.07895725327554466 0.06453375650867683 -0.09561998938799347 0.4239127736371394 0 0 0 0
1513895835 0.06798873320715276 0.06628251922968437 -0.04495039996398687 0.44063138109625677 0 0 0 0
1516625364 0.05948425661861759 0.06344462083846303 -0.006799332497649458 0.4492031877088957 0 0 0 0
1519354893 0.05077806938523964 0.06463163887628529 0.03629648317979414 0.4516746097781759 0 0 0 0
1522084422 0.04061381840909529 0.07302747485773849 0.08687936654716565 0.4509280026346855 0 0 0 0
1524813951 0.03355327331991547 0.0745485191750831 0.13163768635019638 0.4426500364333692 0 0 0 0
1527543480 0.02902454358444134 0.07201705112090226 0.16467531638554028 0.43671962850310253 0 0 0 0
1530273009 0.02176399624916904 0.07590777252184426 0.21018149055876018 0.4207075716000943 0 0 0 0
1533002538 0.014495447708362585 0.07746443652568932 0.24690137057079475 0.40663482554643066 0 0 0 0
1535732067 0.01090259421975963 0.0767488656696628 0.28675466279786693 0.38089734660294294 0 0 0 0
1538461596 0.002465397659711199 0.07897223523291731 0.3180015473653614 0.3576725485421991 0 0 0 0
1541191125 -0.005835092681957335 0.08397882511044517 0.3506508925185711 0.328881461332593 0 0 0 0
1543920654 -0.009210113143904162 0.0817806595348831 0.3760614660107076 0.2992933371598194 0 0 0 0
1546650183 -0.014885770953949601 0.08580398529385634 0.4042364874410715 0.26562462000973064 0 0 0 0
1549379712 -0.020974964788064956 0.08596049973119481 0.42550914961851755 0.2350919399875498 0 0 0 0
1552109241 -0.02380130286707293 0.08680782222559018 0.4435512872816853 0.20040516735259703 0 0 0 0
1554838770 -0.034562561060196915 0.09165826344650813 0.4587322069127975 0.16559255657017155 0 0 0 0
1557568299 -0.03590147029448632 0.09506186728242824 0.47440678142058146 0.11580543504815816 0 0 0 0
1560297828 -0.04482859899021049 0.09975616281132774 0.4824745047328172 0.07814233250291076 0 0 0 0
1563027357 -0.052532127147917426 0.10356325508977135 0.4886107684903316 0.04920758198443538 0 0 0 0
1565756886 -0.054491104150398005 0.10671707596099698 0.49044303364073455 0.004328911283973214 0 0 0 0
1568486415 -0.05386076028518738 0.11109014933518765 0.49014641774435597 -0.03311964708096848 0 0 0 0
1571215944 -0.05921665716940852 0.11491125926463747 0.48687030165346873 -0.07330760932595975 0 0 0 0
1573945473 -0.06456220006666774 0.12231841176478377 0.4780652698628188 -0.11058030922309277 0 0 0 0
1576675002 -0.0655985494632609 0.12668274852717412 0.47038158296555826 -0.14101010710784245 0 0 0 0
1579404531 -0.06649889925965502 0.13365040674418904 0.45709311869413066 -0.1746382166653535 0 0 0 0
1582134060 -0.07025587865755649 0.14021285686280455 0.44377174023375515 -0.21113914552323493 0 0 0 0
1584863589 -0.06663869992075057 0.14591668034909444 0.42467758579322634 -0.24647687376529281 0 0 0 0
1587593118 -0.06743667166065768 0.15211146810928122 0.4017206429820138 -0.2811246120425389 0 0 0 0
1590322647 -0.06649003777015264 0.1575985215640985 0.3838327362844472 -0.30504098273818636 0 0 0 0
1593052176 -0.06703575890997365 0.1624836584850425 0.3585495653092069 -0.33456326780359374 0 0 0 0
1595781705 -0.06541031822986208 0.1674380461427595 0.33797901914172696 -0.3577758532612144 0 0 0 0
1598511234 -0.0701557461815596 0.1726406787487038 0.3172752832635644 -0.37465843884292427 0 0 0 0
1601240763 -0.061563224063043424 0.17797784020456223 0.2762479985546829 -0.406175637382676 0 0 0 0
1603970292 -0.05509868990651231 0.18094937100592742 0.24872643976212738 -0.4228449647114064 0 0 0 0
1606699821 -0.0598937765517847 0.18506491171007805 0.2104989477440564 -0.4435767018505757 0 0 0 0
1609429350 -0.055586673984583515 0.1872726162621628 0.18564333092715996 -0.4530722022521844 0 0 0 0
1612158879 -0.05327207862963138 0.19064121661708086 0.15617653675764243 -0.463574931247304 0 0 0 0
1614888408 -0.04628681125628176 0.1927218179869227 0.11878654996682077 -0.4766462887419958 0 0 0 0
1617617937 -0.048674184428306635 0.19455707811778836 0.09355974837404572 -0.48132914447343245 0 0 0 0
1620347466 -0.041917171758561154 0.19787679637500516 0.050704845477310904 -0.4868267746909571 0 0 0 0
1623076995 -0.042935551567753326 0.19822847680981673 0.015756705555603136 -0.4887283030384794 0 0 0 0
1625806524 -0.03999351904592871 0.20079041808071252 -0.013076902941481974 -0.4905676598464184 0 0 0 0
1628536053 -0.026502160975478563 0.20375238016421146 -0.049206734325122126 -0.48577538756972766 0 0 0 0
1631265582 -0.0360076750467779 0.20193244179746933 -0.08553424630071392 -0.47927697495874216 0 0 0 0
1633995111 -0.02800394586902547 0.20542518987455113 -0.11655963134492554 -0.47610603379694066 0 0 0 0
1636724640 -0.02774881815724295 0.20485087242114475 -0.15298415962185305 -0.46337583579325087 0 0 0 0
1639454169 -0.0228547532861282 0.20596642148355357 -0.17738998920536314 -0.4540944935395622 0 0 0 0
1642183698 -0.022138968092910105 0.20654063432228623 -0.21591755303544968 -0.4345892939610205 0 0 0 0
1644913227 -0.013922034439365705 0.21081224289179132 -0.24892362359198086 -0.41886083940266616 0 0 0 0
1647642756 -0.02376933013730045 0.20554155527038717 -0.2684702494448855 -0.4057371864185334 0 0 0 0
1650372285 -0.011833241894861183 0.21100580078393838 -0.2958047532664851 -0.3862404165725204 0 0 0 0
1653101814 -0.018790638738417298 0.2060785894118897 -0.32488305608210005 -0.3591557253323404 0 0 0 0
1655831343 -0.0017314346908934182 0.21305091161824127 -0.3429723090746236 -0.3414973429044345 0 0 0 0
1658560872 -0.006781274137258037 0.20837007667184035 -0.36526808042708264 -0.31538125142372003 0 0 0 0
1661290401 -0.0003726573353445833 0.21076660740369085 -0.39096541517887295 -0.2832046213617296 0 0 0 0
1664019930 0.007300413061615435 0.21404609319617096 -0.40965077429419144 -0.25502673317075036 0 0 0 0
1666749459 0.007534191839038716 0.21248228818078016 -0.4204434110222213 -0.2345314908038233 0 0 0 0
1669478988 0.00915970767519564 0.21159451427370046 -0.43309022366371286 -0.20415091619079395 0 0 0 0
1672208517 0.019796616738522024 0.20908000896757087 -0.4487722418911221 -0.16893004961413174 0 0 0 0
1674938046 0.026170257260853452 0.2084171648719613 -0.4589754106959391 -0.13273279483911085 0 0 0 0
1677667575 0.024209011250176916 0.20346723860303983 -0.46304214025235707 -0.10562454098955794 0 0 0 0
1680397104 0.03594407176637839 0.20695294870699846 -0.469935221220541 -0.0740401704397405 0 0 0 0
1683126633 0.036136656553651385 0.19970502965727926 -0.4742909397720593 -0.02982131725563116 0 0 0 0
1685856162 0.03509481315461944 0.19502849257257276 -0.473849157472978 -0.017038077223527168 0 0 0 0
1688585691 0.04662380809610275 0.19263386538251556 -0.4736237028767034 0.01290733039034302 0 0 0 0
1691315220 0.048891052981901564 0.187182798480038 -0.4692207492168661 0.053566545569133484 0 0 0 0
1694044749 0.05569272593298878 0.18241588828394853 -0.4618346450113051 0.09343826336896183 0 0 0 0
1696774278 0.05749111380963026 0.17488820771456046 -0.4556367780792796 0.11206246071003974 0 0 0 0
1699503807 0.06141264557535293 0.17050012794931999 -0.44821028897526227 0.14441598241177558 0 0 0 0
1702233336 0.06153290802045367 0.1652446948583607 -0.43535380697899273 0.17675098961402275 0 0 0 0
1704962865 0.06140392271940507 0.15347594187970404 -0.4269748509100969 0.19838599931322926 0 0 0 0
1707692394 0.06662922390015079 0.15388922454810888 -0.4111502123319486 0.2260667988682506 0 0 0 0
1710421923 0.06466416885902909 0.14056277148194588 -0.39677229302570727 0.2510419964646664 0 0 0 0
1713151452 0.0679239610334765 0.13473400057220705 -0.37960044077152544 0.2728179212168175 0 0 0 0
1715880981 0.06587486077428129 0.12441583431585637 -0.3498729254091591 0.30990637506886237 0 0 0 0
1718610510 0.062241345208165356 0.11153084316616149 -0.33669637897426363 0.32717067016428836 0 0 0 0
1721340039 0.058975652539779974 0.10522339831331141 -0.3081198553679605 0.3509421043554795 0 0 0 0
1724069568 0.055309194109512294 0.10300222852930993 -0.2895014020635709 0.36832331953180825 0 0 0 0
1726799097 0.04848716293937049 0.0899410880469941 -0.2550607337208835 0.3890745876303253 0 0 0 0
1729528626 0.04371535805616853 0.08047032748498667 -0.22961922603564888 0.4065683012500443 0 0 0 0
1732258155 0.03582877333936522 0.07967798134464148 -0.20167180855973582 0.4213371246359035 0 0 0 0
1734987684 0.028651929932390782 0.06516307075104535 -0.16565597769013263 0.4350531401934214 0 0 0 0
1737717213 0.018657359573211105 0.056688495627849333 -0.14640238091134553 0.4417061423839833 0 0 0 0
1740446742 0.009346395688555791 0.060215836005956404 -0.10928304991553286 0.45170754408694114 0 0 0 0
1743176271 0.00046769670398525836 0.04392787388420455 -0.07631183181768299 0.45873092660759895 0 0 0 0
1745905800 -0.012348413304536822 0.04365121872259871 -0.05026105548368367 0.46111956946176663 0 0 0 0
1748635329 -0.022848674486200603 0.04495661839688178 -0.004260926896887543 0.46309271819587333 0 0 0 0
1751364858 -0.035534186661253415 0.05025749547221677 0.0140916892191675 0.46269307242310814 0 0 0 0
1754094387 -0.045527379659311314 0.03683712453949453 0.039768396103489784 0.460333037246162 0 0 0 0
1756823916 -0.057999933852121516 0.05094347857256693 0.09100216006252576 0.45319615128280394 0 0 0 0
1759553445 -0.06811907240333155 0.04089002599577877 0.11911648105674023 0.4460751778159198 0 0 0 0
1762282974 -0.07990927848703026 0.04965548812296113 0.1529048693724412 0.43269603167295756 0 0 0 0
1765012503 -0.09065144858077878 0.054391774636373076 0.17945286640013117 0.4238765290982973 0 0 0 0
1767742032 -0.10343315884921205 0.06454430957443442 0.20807477835668653 0.40873613128261016 0 0 0 0
1770471561 -0.10706478695134591 0.060490632503927784 0.24926835324252683 0.3859990807369869 0 0 0 0
1773201090 -0.12026450434119085 0.07524313349545181 0.2635064400699288 0.37271725952481943 0 0 0 0
1775930619 -0.1284657491318087 0.08204740536057571 0.28734495742799027 0.3519744974920273 0 0 0 0
1778660148 -0.13125774558863262 0.08771013356972021 0.324359874864198 0.32058057308696575 0 0 0 0
1781389677 -0.14155280428694136 0.09776110457446119 0.3388366531841534 0.3018416069079129 0 0 0 0
1784119206 -0.14328196881055585 0.1090528456602893 0.35802342674187554 0.27779211177557595 0 0 0 0
1786848735 -0.15295859116495575 0.1180202127790234 0.3767789277910569 0.24884339977590292 0 0 0 0
1789578264 -0.15079209876908634 0.12047458010797552 0.39428128235280524 0.22018783297349265 0 0 0 0
1792307793 -0.15171954728228246 0.12702103102107343 0.40474928566057583 0.1917696451725133 0 0 0 0
1795037322 -0.15321259855459463 0.13996956828184204 0.4190952551229519 0.15696288690003377 0 0 0 0
1797766851 -0.15104713184637175 0.14890813414609963 0.43089167821219704 0.11457152342972127 0 0 0 0
1800496380 -0.15987385457105197 0.16211453470151935 0.4379134564063614 0.07852925906148193 0 0 0 0
1803225909 -0.14922068192141397 0.16819047480569024 0.4398033482727128 0.04931768215149031 0 0 0 0
1805955438 -0.1468974470618232 0.17466331094636206 0.44089583941440214 0.0034908076763521013 0 0 0 0
1808684967 -0.14619660006263674 0.18084828428927874 0.4393912267293036 -0.022426153554048287 0 0 0 0
1811414496 -0.14226025465278322 0.1820516452960451 0.43571286472262055 -0.050983341448108475 0 0 0 0
1814144025 -0.14106756720768812 0.18482881085655872 0.4279298168204288 -0.08740898299103353 0 0 0 0
1816873554 -0.1395713996413953 0.18973830331395208 0.41397317266246075 -0.13040109904988756 0 0 0 0
1819603083 -0.13619676043499612 0.19340407272708673 0.39510130282649164 -0.1769770627963999 0 0 0 0
1822332612 -0.133845995574337 0.1911057595616008 0.3798386748217726 -0.2022650587175031 0 0 0 0
1825062141 -0.13174950059474008 0.18936959477784152 0.362758768286273 -0.2268905601112194 0 0 0 0
1827791670 -0.13018806700533986 0.18629574920414313 0.34156471630850643 -0.2526440911705329 0 0 0 0
1830521199 -0.13010372204872575 0.1892005651685105 0.30645152557786304 -0.28850201050595137 0 0 0 0
1833250728 -0.13353179056906866 0.18799886770792698 0.2775120453729951 -0.3100805188697558 0 0 0 0
1835980257 -0.13786475353051134 0.18024733926530495 0.25750561971300073 -0.329221792931742 0 0 0 0
1838709786 -0.1433093054788854 0.18214572169955182 0.2096824869742731 -0.35085224412020605 0 0 0 0
1841439315 -0.14435350666529298 0.17961870020163406 0.1763551236846482 -0.3622809706248427 0 0 0 0
1844168844 -0.15289444522133164 0.17859804403280904 0.1392291071354534 -0.36979714147903847 0 0 0 0
1846898373 -0.16020095273594304 0.17663741657513593 0.10635452299191682 -0.37323496495252223 0 0 0 0
1849627902 -0.16760705784975577 0.17735898031489944 0.06554332468755797 -0.37552630708453627 0 0 0 0
1852357431 -0.17289974293181956 0.17698316794738914 0.01862067827963113 -0.37072445524628883 0 0 0 0
1855086960 -0.19025936806042243 0.18263721348279113 -0.012664326397296945 -0.36199663924191305 0 0 0 0
1857816489 -0.1948925420460718 0.18958645850476874 -0.04614206427165956 -0.3496695032095528 0 0 0 0
1860546018 -0.21207815164129193 0.19871282430255072 -0.08250660398033807 -0.32953547566649183 0 0 0 0
1863275547 -0.21771276105798137 0.2067068129182647 -0.10988581441310452 -0.31047989827331596 0 0 0 0
1866005076 -0.23227949679298368 0.21569635176357316 -0.14204223599045215 -0.2822575917787689 0 0 0 0
1868734605 -0.24160234788592444 0.22919134953923664 -0.15622407490408477 -0.2597725038357018 0 0 0 0
1871464134 -0.25676981644769714 0.24774325003133435 -0.17796933903442982 -0.22930781409836273 0 0 0 0
1874193663 -0.2647662161782439 0.2575611960905732 -0.18587241865615758 -0.2061193255662301 0 0 0 0
1876923192 -0.2724571409996765 0.27265740060233307 -0.1980255595433372 -0.17284561781726732 0 0 0 0
1879652721 -0.26943501936813524 0.29771269294717084 -0.2032400309752812 -0.14719398910914633 0 0 0 0
1882382250 -0.2742678256066646 0.31352222218227577 -0.2023300447204424 -0.12406646539552316 0 0 0 0
1885111779 -0.27125281467088863 0.33337471996997103 -0.20072833935223544 -0.09638811694156639 0 0 0 0
1887841308 -0.27248308603663063 0.3530283850063128 -0.19641353803196201 -0.07667809484760094 0 0 0 0
1890570837 -0.2683991809442024 0.3714778134965372 -0.19027580899160104 -0.05699397407424595 0 0 0 0
1893300366 -0.2686419334198019 0.3875399832508365 -0.1828561171328986 -0.03736634515546852 0 0 0 0
1896029895 -0.25262509613797673 0.4063246605951799 -0.17436616685185144 -0.01978558444234415 0 0 0 0
1898759424 -0.2521252651655435 0.42773738988184645 -0.1636673074859825 -0.006662111451898237 0 0 0 0
1901488953 -0.23937123873894528 0.4435742603091339 -0.15328821894608918 0.007955537677399595 0 0 0 0
1904218482 -0.22908322813340262 0.46051421049271934 -0.14242884686510196 0.017159411240190284 0 0 0 0
1906948011 -0.21671726117225537 0.47195579914569213 -0.13123094028938936 0.02462494760170756 0 0 0 0
1909677540 -0.20341609436491698 0.48543522637956515 -0.12048468424063855 0.03231430863556524 0 0 0 0
1912407069 -0.19410074403478755 0.49950880446669427 -0.11192132532637211 0.035634749350344046 0 0 0 0
1915136598 -0.18385992892157246 0.5103434986714055 -0.10087190857750995 0.04154602072231469 0 0 0 0
1917866127 -0.16442394052779205 0.5228505725961665 -0.09216605416485757 0.04465129299689119 0 0 0 0
1920595656 -0.15257192239729123 0.5288208466280652 -0.08267453946727356 0.04747567704826456 0 0 0 0
1923325185 -0.1305566961819357 0.5435575899591509 -0.07557152442578204 0.048004228068635114 0 0 0 0
1926054714 -0.11996297718870023 0.5514949483294656 -0.0679376298123034 0.04908781566385098 0 0 0 0
1928784243 -0.10878889044155789 0.5585535148505434 -0.06257232366930038 0.047648426013412064 0 0 0 0
1931513772 -0.09471828612988041 0.5581417410153445 -0.05434252296846401 0.048732368081296246 0 0 0 0
1934243301 -0.0762750839876337 0.5644620224883602 -0.049318484462685004 0.046721741316761795 0 0 0 0
1936972830 -0.06967100415463454 0.5701939144411313 -0.04455874721514071 0.046395820679692355 0 0 0 0
1939702359 -0.048689236811637726 0.5775462652350111 -0.03880067136799388 0.04558927476096433 0 0 0 0
1942431888 -0.032534296074064654 0.5791584271001087 -0.034070232838917566 0.04456036061481215 0 0 0 0
1945161417 -0.02594602106315427 0.578761684683909 -0.031225601436183796 0.04218410046371039 0 0 0 0
1947890946 0.003560383086408369 0.5861592670022062 -0.026623241352667817 0.04170814490565125 0 0 0 0
1950620475 0.011328694895775782 0.5885951949799744 -0.023776321585547187 0.03996874389642077 0 0 0 0
1953350004 0.01791364775855488 0.5870101503885993 -0.021116672006044904 0.03827443643280866 0 0 0 0
1956079533 0.039101887388195845 0.5901736252578886 -0.018806127639459005 0.03639550828976082 0 0 0 0
1958809062 0.05447228342651911 0.586157473673294 -0.016141429457562043 0.034919197279386846 0 0 0 0
1961538591 0.060443436274339755 0.5826799389904171 -0.013210392118063206 0.033333821401585445 0 0 0 0
1964268120 0.07729472534627847 0.5853128336812257 -0.012137804402885423 0.03207109615173145 0 0 0 0
1966997649 0.08791610209425785 0.5731029902295909 -0.010493750020776594 0.029985380415605976 0 0 0 0
1969727178 0.1095434288650501 0.5736508594278337 -0.008561145699527633 0.029161875865925387 0 0 0 0
1972456707 0.1227299642682868 0.5839830362031744 -0.007223102028486409 0.0275209268421543 0 0 0 0
1975186236 0.1359977117779999 0.5729570249417639 -0.005308480279642957 0.026318328290108405 0 0 0 0
1977915765 0.14023620967589095 0.5716345773865278 -0.004578065115223601 0.024725140912459573 0 0 0 0
1980645294 0.1475127964360026 0.5666565438796893 -0.004329331978748672 0.023445719862802677 0 0 0 0
1983374823 0.16985997359703542 0.5666512302594262 -0.003077538821540416 0.022524451061039986 0 0 0 0
1986104352 0.1803207480019733 0.5605463637049392 -0.002295707059935646 0.021227347112562803 0 0 0 0
1988833881 0.19268438198956764 0.552655602395285 -0.0017274751700756224 0.020208865199949834 0 0 0 0
1991563410 0.20029484918351897 0.5502145954435061 -0.0013361842891948736 0.019436609113717015 0 0 0 0
1994292939 0.2090323652382388 0.5397939660412369 -0.000689881754380735 0.018115693385921516 0 0 0 0
1997022468 0.23562053914466857 0.5386283185242791 -4.4390640920134294e-05 0.017418614863023422 0 0 0 0
1999751997 0.2370253448654829 0.527059831612424 0.0004602808993770113 0.01619354617297828 0 0 0 0
2002481526 0.24603691221605306 0.5199683471521382 0.0008859211020678922 0.015650229187206315 0 0 0 0
2005211055 0.252953819756939 0.5228180564006775 0.0014550142752891584 0.014773186244451234 0 0 0 0
2007940584 0.2609318956151265 0.5080492507023241 0.001559082127624777 0.013966532101400876 0 0 0 0
2010670113 0.2783015993866834 0.49856685834939757 0.0015129900604356802 0.013238669568694846 0 0 0 0
2013399642 0.27995707552438853 0.5001172523154741 0.0017932379964546458 0.01276811723319645 0 0 0 0
2016129171 0.2983146835676422 0.48113941343073896 0.002122876338928686 0.012087017530967725 0 0 0 0
2018858700 0.3050214479801811 0.47538171672402235 0.002473541916272594 0.01124599828492726 0 0 0 0
2021588229 0.31334194451565844 0.4721107644977409 0.0023295988021737376 0.010793038891912604 0 0 0 0
2024317758 0.32480105022606587 0.4615596557795573 0.0026458181776153186 0.010432623562824372 0 0 0 0
2027047287 0.3252572248430279 0.4520834667818088 0.0024623985513135983 0.009542406440182023 0 0 0 0
2029776816 0.33517340167308224 0.4443089470009191 0.0024787058372370088 0.009210222490578488 0 0 0 0
2032506345 0.3420908958348579 0.43614324424307843 0.0028276986114447126 0.008841276649944914 0 0 0 0
2035235874 0.3500283951649385 0.42424837524773845 0.0030473672649548905 0.00824133841841429 0 0 0 0
2037965403 0.35977148813003773 0.41951432635550107 0.003119696012557299 0.00789123140013097 0 0 0 0
2040694932 0.3739649959480342 0.4072347846225754 0.002923449761365817 0.0075667336622629545 0 0 0 0
2043424461 0.3812879918234666 0.39741033485669847 0.0030592853538326543 0.0073518974916804035 0 0 0 0
2046153990 0.37508073756096033 0.3995825783885265 0.0030550057776983215 0.006799899430147595 0 0 0 0
2048883519 0.38468057595116184 0.37931617550777375 0.002834377275535767 0.006463024647442448 0 0 0 0
2051613048 0.38735123730309184 0.37700259845351886 0.0029578199436634633 0.006162360390051776 0 0 0 0
2054342577 0.39595842455825037 0.3657716189248143 0.0029491940147760034 0.005673173282308155 0 0 0 0
2057072106 0.39471791497859743 0.3544756903411925 0.0030872148367977305 0.005393183180303104 0 0 0 0
2059801635 0.4052195879468858 0.34128436598447537 0.003006674318891602 0.0052859639357471025 0 0 0 0
2062531164 0.40400203445267757 0.34211606443525955 0.002959032338884343 0.004936350680453276 0 0 0 0
2065260693 0.41474544014854564 0.3213029937349721 0.002853318917585334 0.004865105336653345 0 0 0 0
2067990222 0.410849742618591 0.3219397018395053 0.0027761550638835193 0.004515111644766402 0 0 0 0
2070719751 0.4094137477819614 0.30840306973701304 0.0028580105072758782 0.0042830362775834975 0 0 0 0
2073449280 0.43066123138131823 0.2866794225209974 0.0028084868787746856 0.003922082965094333 0 0 0 0
2076178809 0.4059414622256753 0.2971901451263616 0.0026900387394701536 0.003647987194700777 0 0 0 0
2078908338 0.436676021438972 0.26779025412415497 0.0029628209099386254 0.00363713231512899 0 0 0 0
2081637867 0.4355169770480711 0.2616573129966932 0.002592888819407324 0.003250327650555183 0 0 0 0
2084367396 0.43051512655344953 0.25288571447905306 0.002710742803427448 0.0032866800096043977 0 0 0 0
2087096925 0.4303343208315141 0.24525559681089942 0.002608918775775547 0.002893922359650078 0 0 0 0
2089826454 0.44811321408143134 0.21368723772652942 0.002578537229698988 0.002825926382299728 0 0 0 0
2092555983 0.4367404615275076 0.228013168758749 0.002333982762761928 0.0026163146610911 0 0 0 0
2095285512 0.44699582310486835 0.1971530100192499 0.0025423455470842994 0.0023459023262943765 0 0 0 0
2098015041 0.44327418945659924 0.19738571956865694 0.002560328999378143 0.0022705043002152685 0 0 0 0
2100744570 0.44049765598803375 0.1884100931632814 0.002447120514601043 0.00204934807417007 0 0 0 0
2103474099 0.44689505596398293 0.17077593009726139 0.002360851194788889 0.0020768544592151923 0 0 0 0
2106203628 0.44941507131861386 0.1579878853115074 0.002210978951605277 0.0018283890693671185 0 0 0 0
2108933157 0.437762359756731 0.1581554991905439 0.0021950466788647947 0.0018770614954531082 0 0 0 0
2111662686 0.4440022577803644 0.14796322256909789 0.0022016610751347337 0.0016499538518805804 0 0 0 0
2114392215 0.43772171220678363 0.1410512442082651 0.0022989325367602405 0.0016308359214951941 0 0 0 0
2117121744 0.43445511930442443 0.12181525244989376 0.0022286346730948006 0.0012671165211372835 0 0 0 0
2119851273 0.43535104734308966 0.11282477738054793 0.0020743567422995927 0.0013533746556278867 0 0 0 0
2122580802 0.433464251920745 0.1086410002714095 0.0021663269169595735 0.0012107204026104196 0 0 0 0
2125310331 0.43622979474493384 0.08757656210822393 0.0020833887623655056 0.001046991350521421 0 0 0 0
2128039860 0.4350522229508535 0.0820531618931887 0.0019341587080062208 0.0008167862020807394 0 0 0 0
2130769389 0.43382691117774524 0.07286282572928816 0.0019936607146765883 0.0009255338142569239 0 0 0 0
2133498918 0.42420283208197695 0.06914214384736925 0.0020002234769494554 0.0008644418798845886 0 0 0 0
2136228447 0.4282062493322813 0.04527372350780058 0.002080646827856686 0.00064444236507479 0 0 0 0
2138957976 0.41487472685209903 0.04637895327828184 0.001722634247359083 0.0007734638101583224 0 0 0 0
2141687505 0.42146972586052645 0.03649766103341661 0.002088604994161417 0.0006402717004896047 0 0 0 0
2144417034 0.41901042063112554 0.026283549499966082 0.0018635134865698632 0.00042931363457271085 0 0 0 0
2147146563 0.41726805019307484 0.01832245024364732 0.0016898656098228038 0.0004640568183426887 0 0 0 0
2149876092 0.40748368673621727 0.018861387174302545 0.0017514219756839997 0.0003203583111843365 0 0 0 0
2152605621 0.40435567679611045 -0.008935819862720093 0.0017407201790433078 0.00019006457756827176 0 0 0 0
2155335150 0.4027073799654704 0.006753216743110303 0.0016461200171526032 0.00013542072094294244 0 0 0 0
2158064679 0.39673331053252603 -0.021637602644667152 0.0015383929292397732 -6.326539004163745e-05 0 0 0 0
2160794208 0.38869109046888745 -0.030908954039523394 0.001492416342550859 0.00011843271544359337 0 0 0 0
2163523737 0.38502203481309677 -0.0245527466996426 0.001784593207257478 -5.18435886472176e-05 0 0 0 0
2166253266 0.3830497291987521 -0.033784117727208705 0.0015704461333743405 -0.00030132571503606727 0 0 0 0
2168982795 0.3758494109344176 -0.04926697375133166 0.0015215997833924306 -0.00020158096382667326 0 0 0 0
2171712324 0.37167501033847783 -0.053030989424588046 0.0012997916112319993 -0.0004607606961869109 0 0 0 0
2174441853 0.3660421447963975 -0.05938268851004709 0.0012756472773857311 -0.0003081370114487902 0 0 0 0
2177171382 0.35901763361623235 -0.0672711743439501 0.001337229851029887 -0.0004071996709397518 0 0 0 0
2179900911 0.3517928130629558 -0.07902328590712869 0.001220211220333695 -0.0005271107358346944 0 0 0 0
2182630440 0.3478434183501569 -0.0874441045134277 0.001182090760550762 -0.0005853751126706756 0 0 0 0
2185359969 0.34369676467745996 -0.08329059548563855 0.0010473522528268722 -0.0005939190635762921 0 0 0 0
2188089498 0.33459976814790005 -0.09409864966279984 0.0008663920096539025 -0.0007274694303235284 0 0 0 0
2190819027 0.33080104817414696 -0.10301180759498264 0.0008345930635592768 -0.0007951349889372916 0 0 0 0
2193548556 0.32160035727505293 -0.11242327664236874 0.0008350412794070852 -0.000871765554958758 0 0 0 0
2196278085 0.31581822159147743 -0.11536089855924399 0.0008460356730339602 -0.0008511864430338781 0 0 0 0
2199007614 0.30717850925554374 -0.12041512239075466 0.0009834639432683488 -0.0009355884291917268 0 0 0 0
2201737143 0.3003969181505516 -0.12870017504126335 0.0007712954312112522 -0.0007625032332908907 0 0 0 0
2204466672 0.29302491530147273 -0.13115068824542225 0.0006327271987776139 -0.0010993113900899852 0 0 0 0
2207196201 0.28701706409284333 -0.13577739030899863 0.0004942768554524954 -0.000874610765681262 0 0 0 0
2209925730 0.2771098179823415 -0.1384650176772378 0.0005995603148844237 -0.0011985667324129394 0 0 0 0
2212655259 0.2711158332777247 -0.14657676986462656 0.0005092150719397208 -0.0009931178828878687 0 0 0 0
2215384788 0.26452647942714047 -0.14833622591028495 0.0002472358235341829 -0.0012724417424666164 0 0 0 0
2218114317 0.2560980034688698 -0.1532497443129214 0.0002286182390198477 -0.001243937411390865 0 0 0 0
2220843846 0.24868550209007723 -0.16527500512774068 0.00033677119654671757 -0.0012727227803421724 0 0 0 0
2223573375 0.2417438815500855 -0.16104704465366224 0.00018171156979569816 -0.0012136115062471233 0 0 0 0
2226302904 0.2293004366260509 -0.16375155860188964 -1.0639833683606295e-05 -0.001379821824010651 0 0 0 0
2229032433 0.22223504312426304 -0.17302835482227233 0.00029914979010523316 -0.0012506308734542978 0 0 0 0
2231761962 0.21772887992913112 -0.17905850540688473 -0.00018282443145026923 -0.0013563587186661429 0 0 0 0
2234491491 0.20913761941798129 -0.173544588705616 -0.00010187567791359385 -0.0013994591845337843 0 0 0 0
2237221020 0.19956364027387308 -0.17065384893482816 -0.0002955638685732039 -0.0012153826091446899 0 0 0 0
2239950549 0.19945340040914233 -0.1753795866089325 -0.0003857711642012919 -0.001372302260801796 0 0 0 0
2242680078 0.17979183258852346 -0.18016269235322477 -0.0005414967340456266 -0.0012879418760517296 0 0 0 0
2245409607 0.1805435235755031 -0.18763513700269646 -0.0005089613053711951 -0.0015057556083157603 0 0 0 0
2248139136 0.17698356145174896 -0.18327983004466142 -0.00042631243020573614 -0.0015766368302316427 0 0 0 0
2250868665 0.16667448329138837 -0.19051776393632408 -0.0006513074117104231 -0.0014720235147939785 0 0 0 0
2253598194 0.15886073397572872 -0.1939215672225653 -0.0008741746289901701 -0.0014298374652667305 0 0 0 0
2256327723 0.14829602345999954 -0.1840511049797134 -0.0007174726470538388 -0.0014167390431110442 0 0 0 0
2259057252 0.1457719204381381 -0.19136430220319178 -0.0007640909882686934 -0.00137236647857654 0 0 0 0
2261786781 0.13567284734397778 -0.19381898246494442 -0.0007672564313553788 -0.0014011662872960209 0 0 0 0
2264516310 0.1283438541942431 -0.1936025320682812 -0.0009118555272528504 -0.001264548643123157 0 0 0 0
2267245839 0.11761858040729538 -0.19084971927960193 -0.001062098101549305 -0.0012816157118990365 0 0 0 0
2269975368 0.1113545580004428 -0.19316479698238478 -0.0010301741170200187 -0.0013262750451894232 0 0 0 0
2272704897 0.1032577088151175 -0.18980859914903692 -0.0009535027074632928 -0.0011224584227890841 0 0 0 0
2275434426 0.0949930000195747 -0.19564308933980193 -0.001118554565157182 -0.0011802962071920035 0 0 0 0
2278163955 0.08087398400208835 -0.18853996823232586 -0.00128023976732991 -0.001200166911617325 0 0 0 0
2280893484 0.08112271998093937 -0.19121587609524696 -0.001401762423925932 -0.001414424904097121 0 0 0 0
2283623013 0.07689655657262238 -0.19244222564525176 -0.0013605172206735087 -0.0011688850429107287 0 0 0 0
2286352542 0.07313322748076712 -0.19083136996159458 -0.0014419026311768294 -0.0010712846479567233 0 0 0 0
2289082071 0.0664315296341467 -0.19156236895216688 -0.001496648884380977 -0.0010851422486672755 0 0 0 0
2291811600 0.05477852052110927 -0.18969730056792633 -0.0015809314247203048 -0.0010841711443671544 0 0 0 0
2294541129 0.04274782213867463 -0.1867535911560347 -0.0016578477308765852 -0.0009695292406985587 0 0 0 0
2297270658 0.042893378828043616 -0.1831510876147865 -0.0016325103782073153 -0.001132553942781877 0 0 0 0
2300000187 0.03607006906958319 -0.17854579796484435 -0.0016938492230808213 -0.0008614086970079982 0 0 0 0
