# HZ S RI R 50
1200000000 -0.28477746199445375 -0.16054491071761753 -0.6760010399207595 0.3022659792822954 0 0 0 0
1202729529 -0.28935864260459454 -0.14967598758856604 -0.6756558295247155 0.31291365827597667 0 0 0 0
1205459058 -0.2956538202328626 -0.14135002368724642 -0.6726787775043592 0.3199563200041959 0 0 0 0
1208188587 -0.30108010677349745 -0.13719688298716667 -0.6625067173422563 0.3259220249299625 0 0 0 0
1210918116 -0.3085539943398059 -0.12182474641964466 -0.6669404771591126 0.320992609682285 0 0 0 0
1213647645 -0.3152484954697 -0.11826305689012556 -0.6588281163233132 0.34035294146347206 0 0 0 0
1216377174 -0.31952999586053393 -0.11128573061407615 -0.6531775545292511 0.340164407262334 0 0 0 0
1219106703 -0.3256671128984027 -0.10172842818750516 -0.6506591588294023 0.34877497136648805 0 0 0 0
1221836232 -0.3311420567794104 -0.09320336418056205 -0.6465967427714172 0.34902833543876294 0 0 0 0
1224565761 -0.3364853172479036 -0.08817234408021621 -0.6407414711881813 0.35732399381687097 0 0 0 0
1227295290 -0.3412440954430714 -0.08103009540258369 -0.6363249174510308 0.35883589070746874 0 0 0 0
1230024819 -0.346208105099139 -0.06669662490145638 -0.6369044686661012 0.35994256539985076 0 0 0 0
1232754348 -0.3502842773973931 -0.059999088285113515 -0.626042514880504 0.3697646900565184 0 0 0 0
1235483877 -0.3561605520496387 -0.05120925239316717 -0.6229840425381447 0.37721958224863783 0 0 0 0
1238213406 -0.3617827441915218 -0.042329898490491874 -0.6109210175162678 0.3917752093485143 0 0 0 0
1240942935 -0.3644284932452168 -0.03575203605450102 -0.6117659743257049 0.3866758973714838 0 0 0 0
1243672464 -0.36893814182847323 -0.024732264149591964 -0.5994084618517087 0.39894102975449314 0 0 0 0
1246401993 -0.37225157501646017 -0.01676571649010252 -0.6038194971268475 0.39076395107191864 0 0 0 0
1249131522 -0.3756831672262409 0.0002594905046465352 -0.5980561602730087 0.3990612019221937 0 0 0 0
1251861051 -0.3792035817735522 0.007952915412374155 -0.5884456186642787 0.41315841939959735 0 0 0 0
1254590580 -0.3820400020575181 0.01389689438023824 -0.5829741998477806 0.4168283618320915 0 0 0 0
1257320109 -0.38438491263191915 0.024742954947541036 -0.5772181412378169 0.4212276565266565 0 0 0 0
1260049638 -0.3865659938109426 0.032913984546011556 -0.5675663926485348 0.43123809962128545 0 0 0 0
1262779167 -0.38887355933762635 0.04440041386624669 -0.5667782193498845 0.4316219654095038 0 0 0 0
1265508696 -0.3914971888710486 0.05440287005991321 -0.5632973227963414 0.43447005580252174 0 0 0 0
1268238225 -0.3931837487831022 0.06244363559054736 -0.5629942136416441 0.43218486908447795 0 0 0 0
1270967754 -0.39370831284584695 0.07580057623994206 -0.5531033682167292 0.4365164525315732 0 0 0 0
1273697283 -0.3956987283557713 0.08251307211905327 -0.5459597716665433 0.44798168695809903 0 0 0 0
1276426812 -0.39601458981973725 0.0970816713343547 -0.5497253491829571 0.4380809777160207 0 0 0 0
1279156341 -0.3957426917904431 0.10479698716134847 -0.5399649753649725 0.4481074600312467 0 0 0 0
1281885870 -0.3972298159853287 0.12022499494767783 -0.5362885932194992 0.44848070667435064 0 0 0 0
1284615399 -0.3970375985529562 0.12844224950100352 -0.5252615489391232 0.457333415778988 0 0 0 0
1287344928 -0.3970543926950154 0.13450475168980225 -0.5157275808626238 0.4691515395559108 0 0 0 0
1290074457 -0.3930503921452257 0.14975774270398343 -0.5134703456488443 0.465812608429387 0 0 0 0
1292803986 -0.39741541769641403 0.15681611149077151 -0.5169536642876074 0.45838043560678393 0 0 0 0
1295533515 -0.3946430186069912 0.1658637998634645 -0.5076201372375573 0.4667363410674076 0 0 0 0
1298263044 -0.3932846138268549 0.18101340747346994 -0.5039624374205862 0.4688242858243443 0 0 0 0
1300992573 -0.38888228887601267 0.19727437870228043 -0.5055105132577743 0.4661807523100561 0 0 0 0
1303722102 -0.388902669131942 0.19832782827664372 -0.49367393160638295 0.4740678005416602 0 0 0 0
1306451631 -0.38551127956209674 0.20816341736415514 -0.49021877631583277 0.4767037284851431 0 0 0 0
1309181160 -0.38273982743122664 0.22670827111774744 -0.4795400380643702 0.4870764171194144 0 0 0 0
1311910689 -0.38074821398875414 0.23232641907863733 -0.4847935424209995 0.48011807659285854 0 0 0 0
1314640218 -0.3780504463248041 0.24517676692076842 -0.4689642754032407 0.4897110462657571 0 0 0 0
1317369747 -0.37259413525174295 0.25517784655594616 -0.470580752274279 0.4884491273785982 0 0 0 0
1320099276 -0.3694559368175032 0.2615705108746453 -0.46678561998929446 0.4901331161860242 0 0 0 0
1322828805 -0.364928288649479 0.27467674209081705 -0.4615551724208356 0.4911818380742251 0 0 0 0
1325558334 -0.3621912049712617 0.281134366273412 -0.4489473081063583 0.49884375466318986 0 0 0 0
1328287863 -0.3538308169968683 0.2969328992872857 -0.44104180656991393 0.5055174242672267 0 0 0 0
1331017392 -0.35457906424919117 0.300814931301316 -0.44183360998376847 0.5047587064743019 0 0 0 0
1333746921 -0.3468709671364897 0.314182069182227 -0.43873105770122683 0.5040788573977547 0 0 0 0
1336476450 -0.34435986074248476 0.32250843096275456 -0.434537151371536 0.5054640368837496 0 0 0 0
1339205979 -0.33114324240175463 0.3347258471021102 -0.42022942169182215 0.5141141281736359 0 0 0 0
1341935508 -0.3336265802358382 0.33814181474658045 -0.4290706143999359 0.5088730464149317 0 0 0 0
1344665037 -0.3200969442207173 0.353783078500948 -0.4229769084911149 0.5122624994092009 0 0 0 0
1347394566 -0.31641104678768767 0.3555583455908907 -0.4212861225806214 0.5071184727593541 0 0 0 0
1350124095 -0.30814369396385216 0.37017775086158083 -0.4179974064804921 0.5145628705489382 0 0 0 0
1352853624 -0.30218208260645774 0.37868882334501064 -0.40291174756485865 0.5164463271557449 0 0 0 0
1355583153 -0.2911124296029253 0.38330650548544004 -0.4077707425425058 0.5163206635543512 0 0 0 0
1358312682 -0.289041350002992 0.39146373861617034 -0.39986594644426826 0.517740304067029 0 0 0 0
1361042211 -0.27307401675753085 0.402783446200977 -0.40004204642814445 0.5195638561305665 0 0 0 0
1363771740 -0.2662244353527697 0.4087399564583109 -0.3927245795139073 0.5246868690352849 0 0 0 0
1366501269 -0.25817432312444305 0.41685726394208783 -0.3886727626023191 0.5295303314499252 0 0 0 0
1369230798 -0.2505530844745057 0.42420979312605966 -0.3861375571965118 0.5243613328337821 0 0 0 0
1371960327 -0.23601780568919248 0.4312154433425004 -0.37535163404963495 0.532137307821287 0 0 0 0
1374689856 -0.226084744687323 0.43803868488915254 -0.3759187912694706 0.528259590320758 0 0 0 0
1377419385 -0.2187960993356951 0.44172478062421394 -0.36785253540118046 0.5352036882311405 0 0 0 0
1380148914 -0.2032862504995787 0.45059058027385274 -0.37055271969620573 0.5335882304932932 0 0 0 0
1382878443 -0.19849989346412197 0.4560279810902227 -0.36449114255323045 0.5306787884206414 0 0 0 0
1385607972 -0.1830112939844111 0.4615300255885345 -0.3619665032175119 0.5367149160206004 0 0 0 0
1388337501 -0.1654088237863115 0.4708855952091028 -0.3561513607630173 0.5379423130961172 0 0 0 0
1391067030 -0.1608616539580808 0.4746386327212474 -0.3502845265431668 0.540339947971214 0 0 0 0
1393796559 -0.14142346060870098 0.47478099836353743 -0.34362433270998993 0.545348315348848 0 0 0 0
1396526088 -0.12865478352979515 0.4818535938353828 -0.3323852120609676 0.5532660094311768 0 0 0 0
1399255617 -0.12200638994432836 0.4837674167228945 -0.35382200608061415 0.535288099578354 0 0 0 0
1401985146 -0.10661744678592759 0.4911299508533069 -0.33891412245330516 0.5432388819850861 0 0 0 0
1404714675 -0.09361127835829941 0.4893346502805438 -0.3328688317677847 0.5484982266657723 0 0 0 0
1407444204 -0.07266546100356709 0.49299173503401494 -0.33601090830472513 0.5455283978638075 0 0 0 0
1410173733 -0.06495691766509575 0.49284847987742497 -0.3288630618209037 0.5498953644697757 0 0 0 0
1412903262 -0.0566380148910641 0.49530479093880914 -0.3350211814193938 0.5463299592829761 0 0 0 0
1415632791 -0.03534538779459798 0.4958920994143646 -0.31934708150014673 0.5578122731182368 0 0 0 0
1418362320 -0.019755559811237017 0.49544453619820894 -0.3237569025791953 0.5513275117868487 0 0 0 0
1421091849 0.001197939181768761 0.49638165002421036 -0.31366243596288995 0.5605268908681468 0 0 0 0
1423821378 0.017571943826170628 0.49109697442811 -0.3114868900036896 0.5597014196372171 0 0 0 0
1426550907 0.03398504864613781 0.4895241450312806 -0.3155124500303861 0.5590751256167391 0 0 0 0
1429280436 0.04186779130746378 0.4862316519842283 -0.30400874280690543 0.5638232135308247 0 0 0 0
1432009965 0.060406312336020805 0.4780026908042182 -0.3058580591716132 0.563393412021296 0 0 0 0
1434739494 0.08050938820368907 0.47488468154832286 -0.30012914357539333 0.5677321177167045 0 0 0 0
1437469023 0.09083802586935166 0.4665727228126094 -0.30931000308998835 0.5599564366176116 0 0 0 0
1440198552 0.11469314711595395 0.45967987289275075 -0.28846104071357453 0.5756004241240382 0 0 0 0
1442928081 0.12455918612024017 0.4505223455383002 -0.3028136797945475 0.5671268146153177 0 0 0 0
1445657610 0.14364307039802798 0.4351492667381773 -0.28428587833342484 0.5773991623378208 0 0 0 0
1448387139 0.16450193330137203 0.4295562527074218 -0.28203017064879593 0.5841684937023347 0 0 0 0
1451116668 0.1794598484783144 0.413158440050295 -0.27781198878431107 0.5870325523950773 0 0 0 0
1453846197 0.19372639513561082 0.3983684652757391 -0.28232500870787 0.5852460169422715 0 0 0 0
1456575726 0.20904739124303442 0.3807809084172195 -0.27625685066205263 0.5890772348927771 0 0 0 0
1459305255 0.2184178892673671 0.36572199459283067 -0.27820723359958416 0.5933882096505086 0 0 0 0
1462034784 0.2279636750873237 0.34533828790284793 -0.26208686532535763 0.5989798042633949 0 0 0 0
1464764313 0.24247293709976578 0.32075241437768987 -0.25881843805151616 0.6011376857016824 0 0 0 0
1467493842 0.24711252182916418 0.2990840517771613 -0.2723400840950535 0.6011182171778034 0 0 0 0
1470223371 0.25127201624046136 0.28414411549292506 -0.26435373410658336 0.6087659422108657 0 0 0 0
1472952900 0.2559165775045403 0.25891503572316427 -0.2614042579280129 0.613169803979747 0 0 0 0
1475682429 0.25351658945994904 0.23552290093354286 -0.2639509468881399 0.6108082546817069 0 0 0 0
1478411958 0.2504465517501585 0.21046579795779624 -0.2383889370057704 0.6239331513996594 0 0 0 0
1481141487 0.24963735756355876 0.18089432100138267 -0.2473030566785527 0.6258947307294875 0 0 0 0
1483871016 0.23752259882430576 0.159367574329954 -0.24745734219156454 0.6260753590441294 0 0 0 0
1486600545 0.2273765152223524 0.13752891244989457 -0.23134214513644347 0.6328921092255742 0 0 0 0
1489330074 0.21339515744662546 0.12007941505704735 -0.2379714507466859 0.63450988848452 0 0 0 0
1492059603 0.19885396819341558 0.10187690198767195 -0.21886271461738732 0.6423374390193849 0 0 0 0
1494789132 0.18065252024128275 0.09404721474271469 -0.21298408134764044 0.6431368873273452 0 0 0 0
1497518661 0.16553680363724144 0.08445595980599101 -0.20498735456156825 0.6448581941994438 0 0 0 0
1500248190 0.14801349035705155 0.07217460107385006 -0.20145669106305114 0.6461346941462928 0 0 0 0
1502977719 0.13095932916554553 0.07283953146205739 -0.19195895778028854 0.6487783823706469 0 0 0 0
1505707248 0.11648591779053916 0.06525038351962359 -0.18692803372518374 0.6492408972242161 0 0 0 0
1508436777 0.10112790579038808 0.07057651092385155 -0.18103291235250876 0.6526712005246523 0 0 0 0
1511166306 0.09016545014441803 0.06971371293092095 -0.15799318938980966 0.6577743721836372 0 0 0 0
1513895835 0.07863561947364872 0.0693009202268495 -0.1610814428975617 0.6576112111027338 0 0 0 0
1516625364 0.06954431609534546 0.07017559863513027 -0.16512111155264877 0.6533223415973689 0 0 0 0
1519354893 0.06163883607002438 0.07442680213337302 -0.1405122534354956 0.6579094432846777 0 0 0 0
1522084422 0.05524997333900701 0.07715419817503467 -0.14341421425338838 0.6588113515771628 0 0 0 0
1524813951 0.04602760947677063 0.08495305296486749 -0.1348223557847114 0.6565127402247998 0 0 0 0
1527543480 0.044291320290602156 0.08241177695951946 -0.142634663867018 0.6579031470264247 0 0 0 0
1530273009 0.03918776772088721 0.08432342526990727 -0.13354274392674242 0.660623901340477 0 0 0 0
1533002538 0.03748465410605323 0.08289846987685148 -0.12824391308623234 0.660921044261421 0 0 0 0
1535732067 0.033673050295608756 0.08120600835102665 -0.12487055108543242 0.6616900595164104 0 0 0 0
1538461596 0.028992131226519596 0.0841878482465958 -0.11153653202995789 0.6641334488722048 0 0 0 0
1541191125 0.02497417000161954 0.0828554334236236 -0.11053416103295642 0.6622047866983519 0 0 0 0
1543920654 0.02214264840484202 0.0833115376866688 -0.09401594529241844 0.661915006891438 0 0 0 0
1546650183 0.017372926114820424 0.08054674587950181 -0.1109580803766346 0.66202592826451 0 0 0 0
1549379712 0.012651198971642127 0.0815856605315281 -0.08945500446301581 0.665950685863812 0 0 0 0
1552109241 0.00846768635517672 0.08033943519219108 -0.08213790447210978 0.6631203870856612 0 0 0 0
1554838770 0.0002989419565826875 0.08205986384026841 -0.08004930967641274 0.6642136824437229 0 0 0 0
1557568299 -0.004081539007427856 0.08190172817799586 -0.06229509721954799 0.6643854563678239 0 0 0 0
1560297828 -0.012868491702417145 0.08342417405560217 -0.06512711680574021 0.6667599243186649 0 0 0 0
1563027357 -0.01681127133845988 0.08454875569309873 -0.05270581182424037 0.6670356588462776 0 0 0 0
1565756886 -0.02260425935080549 0.08526431594928088 -0.05183538995941631 0.66522408723922 0 0 0 0
1568486415 -0.022915180456376676 0.08593598964398406 -0.04907873245391824 0.6643217848353402 0 0 0 0
1571215944 -0.03230506785851044 0.09008268525135159 -0.030333871735140905 0.6668461465702792 0 0 0 0
1573945473 -0.03939200566337805 0.09264442662825613 -0.03588827157424434 0.6636050858502738 0 0 0 0
1576675002 -0.04420464179217205 0.09607947945475305 -0.03568441486980291 0.6625343705811162 0 0 0 0
1579404531 -0.051992274514037165 0.10368123999970975 -0.025476836315500694 0.6614793482978945 0 0 0 0
1582134060 -0.050589000292258685 0.10794460633512212 -0.018811219784303494 0.6623542276889167 0 0 0 0
1584863589 -0.05722328095147377 0.11373232232385673 -0.011882525193627896 0.6605425554479556 0 0 0 0
1587593118 -0.05809569277137533 0.11937991089617798 -0.003676800059078446 0.6605321884286538 0 0 0 0
1590322647 -0.05903586085878128 0.1264005787297876 0.004796744322529477 0.6594044868878095 0 0 0 0
1593052176 -0.05902579160911033 0.1320048604603333 0.008821583363968362 0.6569200812519316 0 0 0 0
1595781705 -0.06328421551456488 0.13847983100738495 0.006370051403331382 0.6582745943804804 0 0 0 0
1598511234 -0.06925274387796539 0.14535378829226253 0.00036662095773553564 0.6542889509809365 0 0 0 0
1601240763 -0.058228852060388914 0.15030818749756386 0.01162819503814367 0.6541302971458165 0 0 0 0
1603970292 -0.05860069652806678 0.1561809675364727 0.03335555702540134 0.6534188203121075 0 0 0 0
1606699821 -0.06292025835061521 0.16133433776993206 0.03428457104855596 0.6533687156069183 0 0 0 0
1609429350 -0.05994837090348216 0.16685271780554914 0.035571773055547026 0.6499287118430555 0 0 0 0
1612158879 -0.05522539936759201 0.17160124648928357 0.04213688549534021 0.6482960167419571 0 0 0 0
1614888408 -0.04808932292423317 0.1759202799406566 0.043256113613861946 0.6522423110473924 0 0 0 0
1617617937 -0.04696800086756112 0.17988590019993678 0.053652324793845525 0.6485645308596546 0 0 0 0
1620347466 -0.042970392672780064 0.18246538022483824 0.040770142613276515 0.6481275043110861 0 0 0 0
1623076995 -0.039369330871125326 0.18478808513032574 0.059775180867793314 0.6455624901712337 0 0 0 0
1625806524 -0.0345044257072663 0.1870211824522451 0.04643353562549847 0.6484464271009118 0 0 0 0
1628536053 -0.02053094914968629 0.1903461153543264 0.06317275336836903 0.6450175832005777 0 0 0 0
1631265582 -0.027995396665927808 0.18822552068472917 0.07564820059323513 0.6420003253654949 0 0 0 0
1633995111 -0.01962954823481365 0.19164155050251488 0.07080581410171788 0.6463429906176592 0 0 0 0
1636724640 -0.012012334632133068 0.1911090362881391 0.07290214216217843 0.6457579255166948 0 0 0 0
1639454169 -0.010606484498145044 0.18867279776158502 0.08085705984708216 0.6423807247137784 0 0 0 0
1642183698 -0.005009773291002955 0.1885666868737841 0.09017126274041784 0.6411983784931193 0 0 0 0
1644913227 0.004102190921794063 0.1904833318128822 0.09330555654017991 0.6427660354880164 0 0 0 0
1647642756 0.0011965228973039312 0.18484529680000422 0.09392864639810479 0.6427815408550462 0 0 0 0
1650372285 0.005244457980073661 0.1829494561601487 0.09411701979865975 0.644890324211154 0 0 0 0
1653101814 0.010907471457222154 0.18061991101849154 0.10973129140710834 0.6433047838324396 0 0 0 0
1655831343 0.01603461764274373 0.1801889837811449 0.09014947354936068 0.6460126699466606 0 0 0 0
1658560872 0.013079470936825984 0.1729868676880641 0.10981275218894634 0.6430883099882037 0 0 0 0
1661290401 0.018401961582297056 0.17050904710272016 0.12070767013314485 0.6428564033906525 0 0 0 0
1664019930 0.020730738150591635 0.16911346161635332 0.1301809395842345 0.6435461472903451 0 0 0 0
1666749459 0.02413601578572326 0.1659091531555559 0.12471222981189974 0.6428441285098614 0 0 0 0
1669478988 0.020282040989233613 0.15913774711371087 0.1331307268524008 0.6442300332868046 0 0 0 0
1672208517 0.027345607175226615 0.15622583977635285 0.1272564162768114 0.6438776367187912 0 0 0 0
1674938046 0.029022233049224674 0.1531896634965541 0.14389615342456874 0.6445450626266933 0 0 0 0
1677667575 0.023640686979572372 0.1442036078546649 0.15099020061998508 0.6411664252716796 0 0 0 0
1680397104 0.026909346143433776 0.14432714270429312 0.14890503172089553 0.639833448707917 0 0 0 0
1683126633 0.029916076576459023 0.14112879889939836 0.17244648829583173 0.6359149450135583 0 0 0 0
1685856162 0.022574504436629263 0.13286121896893774 0.16582521038290543 0.6405692070565966 0 0 0 0
1688585691 0.028604639613942415 0.13223192234608047 0.16480406097573028 0.6409053468838868 0 0 0 0
1691315220 0.02474896633404735 0.1260407418570351 0.18478351131844947 0.6350743123829063 0 0 0 0
1694044749 0.0246516321019702 0.12212576254581228 0.186484292358946 0.6349806920069039 0 0 0 0
1696774278 0.022635216354605848 0.11699639846266054 0.17592717980059244 0.6376073468426517 0 0 0 0
1699503807 0.02082822305522667 0.1134749999101296 0.19345472978987097 0.6375553471519284 0 0 0 0
1702233336 0.01723945660043904 0.1087921526675433 0.20021492449888495 0.6350373318784711 0 0 0 0
1704962865 0.01731724848586467 0.10619032991763493 0.20483778730823313 0.6347902174815194 0 0 0 0
1707692394 0.011992933196475654 0.10268940255564554 0.2004781870284624 0.6360401704131371 0 0 0 0
1710421923 0.010477772236210435 0.09705311463636414 0.2137037781909899 0.6339062523589527 0 0 0 0
1713151452 0.007175747715441239 0.09216711576701278 0.20400744731717477 0.6374974535368694 0 0 0 0
1715880981 0.0033858759262706197 0.08537024957335479 0.23247190121174563 0.6290451043968625 0 0 0 0
1718610510 -0.0011204507395056206 0.07974862457336492 0.22167461478261696 0.63308929815428 0 0 0 0
1721340039 -0.005020359601509987 0.07615457797399841 0.23789848963488686 0.6276574119255578 0 0 0 0
1724069568 -0.008541964341951525 0.08257823180840806 0.23495976152777867 0.6316654010096414 0 0 0 0
1726799097 -0.01406441534098329 0.07345287978404393 0.2616187357218077 0.6184037947888344 0 0 0 0
1729528626 -0.018345319638650184 0.06765983263734711 0.26127157231049125 0.6207236390220511 0 0 0 0
1732258155 -0.02524848269199034 0.07058999844087713 0.2672409476106988 0.6196344591837472 0 0 0 0
1734987684 -0.031322863168547044 0.060645107883289355 0.26962338445428125 0.6213499245115213 0 0 0 0
1737717213 -0.03791120445271089 0.05770841009141276 0.27711019467933085 0.6198330509968999 0 0 0 0
1740446742 -0.045766607804989666 0.06114331202681874 0.2782629633542337 0.6190693943379658 0 0 0 0
1743176271 -0.05221032560532115 0.04542262745511871 0.2906218553422827 0.6145882853988903 0 0 0 0
1745905800 -0.060721722638421065 0.0488900459232952 0.29145230413762546 0.6114775018785723 0 0 0 0
1748635329 -0.06921757405111169 0.05228379262349537 0.31950817125368686 0.5986804592745384 0 0 0 0
1751364858 -0.07854551675774708 0.049997514919321605 0.2949759574362403 0.6116227896085378 0 0 0 0
1754094387 -0.08675164387254 0.043282455550382626 0.3138553425127188 0.603151702031131 0 0 0 0
1756823916 -0.09546119745829168 0.0507723662512226 0.3291068717444664 0.593778663590055 0 0 0 0
1759553445 -0.10606277769041139 0.04596948749147956 0.3330838778492137 0.59092286556249 0 0 0 0
1762282974 -0.1171472253881654 0.05477729787891819 0.33153271306653304 0.5927887213967401 0 0 0 0
1765012503 -0.12548444602604555 0.0520945959039257 0.34178536815695776 0.5889218184187803 0 0 0 0
1767742032 -0.13907739832536212 0.06376986141358706 0.3520895846836603 0.5798830164916849 0 0 0 0
1770471561 -0.14494949085332384 0.05895267261291004 0.3644045272125295 0.5721903549948807 0 0 0 0
1773201090 -0.15850333758198393 0.07421329385739134 0.36060611595135206 0.5701897637113675 0 0 0 0
1775930619 -0.1654864959684116 0.07827534223981146 0.3716161147918431 0.5620557076205328 0 0 0 0
1778660148 -0.1751793991852309 0.08304374553693002 0.3709347530819551 0.5663098074524927 0 0 0 0
1781389677 -0.18353840559449594 0.09065055154222391 0.3803243358308474 0.5544951987400308 0 0 0 0
1784119206 -0.18772478535770165 0.10057484512260745 0.3904682178545827 0.5478150047361576 0 0 0 0
1786848735 -0.2014641644407812 0.10858080095372648 0.3856884820579163 0.5464555380891313 0 0 0 0
1789578264 -0.20345218991457598 0.12195715050460933 0.3927878071278107 0.540109075710966 0 0 0 0
1792307793 -0.2063899495474279 0.1316502281984094 0.39800837302314307 0.5310493107450256 0 0 0 0
1795037322 -0.21219384707821692 0.13523040789751967 0.39668870900780484 0.5324566708693905 0 0 0 0
1797766851 -0.21903492175691736 0.15047378947830437 0.40268210100604557 0.5242082332646223 0 0 0 0
1800496380 -0.22710044496189802 0.16883913534650796 0.40481554300218914 0.5194683601644645 0 0 0 0
1803225909 -0.21958420999457673 0.17467844273558242 0.41480820184814204 0.5092082728210395 0 0 0 0
1805955438 -0.21693956169060946 0.18730200838451705 0.4264674885771781 0.4962347540378663 0 0 0 0
1808684967 -0.22509367491917923 0.20018523443490197 0.4034255507515449 0.5126531228976889 0 0 0 0
1811414496 -0.21553589955501373 0.2068374985769881 0.41529359324547827 0.4988608598544406 0 0 0 0
1814144025 -0.2171050001785412 0.21577991487275117 0.41427964966991515 0.49751945158150945 0 0 0 0
1816873554 -0.2150214145134428 0.22842061567072386 0.42884897482152684 0.4853445555122502 0 0 0 0
1819603083 -0.20759877280082448 0.23619892831667103 0.44166927966502656 0.4729080703325746 0 0 0 0
1822332612 -0.20438299138565164 0.24121446915379977 0.43680860728940446 0.4750041851628609 0 0 0 0
1825062141 -0.19690825339904766 0.24496116637053472 0.4362975748979905 0.4727442644969851 0 0 0 0
1827791670 -0.19832843575274312 0.2442349110904223 0.43352868957505 0.47505335279812977 0 0 0 0
1830521199 -0.19047192825778367 0.25276424341728054 0.442332137271994 0.4675227000260596 0 0 0 0
1833250728 -0.19125262559503128 0.25161231725259803 0.44107600982859435 0.4684089945226572 0 0 0 0
1835980257 -0.18891169762015642 0.25600440013254167 0.442880947048152 0.473267549276235 0 0 0 0
1838709786 -0.18455144188133435 0.2546829011526421 0.457152771699165 0.45249936786176453 0 0 0 0
1841439315 -0.18185267852687262 0.25394565527459867 0.45179932194027395 0.4601475440042002 0 0 0 0
1844168844 -0.18031181234683605 0.25226460410495644 0.46240185881173607 0.4491129568985036 0 0 0 0
1846898373 -0.18324515914781617 0.24945725687285647 0.4569498011467887 0.456493813950586 0 0 0 0
1849627902 -0.18544009125261765 0.247211133003212 0.4691676628706208 0.4462571929832941 0 0 0 0
1852357431 -0.18806866227874902 0.248611828646233 0.4790112300718535 0.43421453876396343 0 0 0 0
1855086960 -0.20179888189713469 0.24674069503783747 0.47689704345404527 0.440799463796057 0 0 0 0
1857816489 -0.20586561220562666 0.2587605788875364 0.49224461096079447 0.42436365519953667 0 0 0 0
1860546018 -0.2195236101097293 0.25805666424488566 0.49706164333924796 0.41124259853666495 0 0 0 0
1863275547 -0.22997321537822493 0.2655514387772539 0.4908167337892177 0.41933697619498306 0 0 0 0
1866005076 -0.24012698172339522 0.2746248025640598 0.5067651791011551 0.392161326292496 0 0 0 0
1868734605 -0.24709777752252488 0.2852979359815676 0.498544983159501 0.3978286483130899 0 0 0 0
1871464134 -0.2660701785926604 0.29485764383973706 0.5024550918011056 0.3864886702141365 0 0 0 0
1874193663 -0.26570338896058193 0.31486009211395366 0.507024640228789 0.37636067956150737 0 0 0 0
1876923192 -0.27573837241702165 0.3289032287507746 0.511436392656149 0.3569392573683832 0 0 0 0
1879652721 -0.276693985963123 0.3517952137172819 0.5113020983093624 0.35132323834443124 0 0 0 0
1882382250 -0.27404717344218815 0.37105090208219205 0.5086455898562167 0.34708129158078627 0 0 0 0
1885111779 -0.27131368168462594 0.3885658198814201 0.5017464715908752 0.34091434165355233 0 0 0 0
1887841308 -0.2747934096948783 0.40782469541635086 0.506142460846972 0.33209562483229177 0 0 0 0
1890570837 -0.267352743707051 0.42673882212731845 0.49897318091811854 0.32997581245007435 0 0 0 0
1893300366 -0.2608158163912465 0.4454153369648852 0.4981854368520891 0.3219070032656896 0 0 0 0
1896029895 -0.242101697220395 0.4638557030646173 0.5004115644971707 0.3120500693154054 0 0 0 0
1898759424 -0.2345495746900877 0.48902450848790363 0.5013026219338975 0.2987892424784958 0 0 0 0
1901488953 -0.23206233184551328 0.4942451498200486 0.49513175718372265 0.29935725927923384 0 0 0 0
1904218482 -0.21893641248373635 0.5138164920208019 0.4907336298058587 0.2959147433117853 0 0 0 0
1906948011 -0.2014104727582986 0.5238591378471019 0.48723162658070923 0.2898265221305715 0 0 0 0
1909677540 -0.1914308738809288 0.5343339379501306 0.4870662276398736 0.2796656556725701 0 0 0 0
1912407069 -0.17861828650441447 0.5511745452086676 0.4798804899256236 0.29258881318056396 0 0 0 0
1915136598 -0.16895611009200612 0.5576904612259964 0.47956115270941735 0.27948208025958055 0 0 0 0
1917866127 -0.1539287733042219 0.5658904165922434 0.4767786702535878 0.2809742609011448 0 0 0 0
1920595656 -0.1328410093072889 0.5749061467675712 0.4758878535112317 0.27162398259399667 0 0 0 0
1923325185 -0.10880131160596135 0.5908059726099091 0.47979534714728395 0.263562167754369 0 0 0 0
1926054714 -0.0994285955189417 0.5943808315039038 0.47575663593523404 0.26574992574856593 0 0 0 0
1928784243 -0.09324409176944953 0.6013064409899692 0.4664186478166717 0.2822972573768005 0 0 0 0
1931513772 -0.08047483436729354 0.6020819758563389 0.4619804322901414 0.27400834851031475 0 0 0 0
1934243301 -0.048016136793773645 0.6074504319274187 0.46611506245838874 0.2620232758846667 0 0 0 0
1936972830 -0.03705705028204613 0.6106388611127831 0.46530724905811194 0.2670848753136134 0 0 0 0
1939702359 -0.02047651589883343 0.6120127515418707 0.4668044774858681 0.252125774542123 0 0 0 0
1942431888 -0.011362120875848813 0.6149076251346461 0.46241265886804717 0.2605288333969173 0 0 0 0
1945161417 0.004624163217473362 0.6179400015284545 0.4598211026464369 0.2607631688883243 0 0 0 0
1947890946 0.02629062280526065 0.6217352375974425 0.4624323202013528 0.2586773608985603 0 0 0 0
1950620475 0.04201763992578079 0.6193057968407942 0.4625218019970455 0.255661006135826 0 0 0 0
1953350004 0.04997819341178542 0.618279916553569 0.4577837392395713 0.26038702950928455 0 0 0 0
1956079533 0.07530255616683554 0.62332344065157 0.4577724127715282 0.25964892747573753 0 0 0 0
1958809062 0.08303541440272652 0.6222920195118021 0.45591837992592965 0.25731562876491065 0 0 0 0
1961538591 0.08994686369129444 0.6130272738954541 0.4568170797588443 0.256479768770111 0 0 0 0
1964268120 0.11737846148001338 0.6144561098582654 0.46277323929451347 0.24766903004051422 0 0 0 0
1966997649 0.12379833175190148 0.6018731661882345 0.4503381407786653 0.25992109940226504 0 0 0 0
1969727178 0.13661846773358527 0.605975877347759 0.45567550650180344 0.2611304459567552 0 0 0 0
1972456707 0.15619153354493095 0.6093344887438018 0.4627776965026305 0.2540889471549022 0 0 0 0
1975186236 0.16802157942466928 0.5996142777323484 0.46270190537014677 0.24782152178531536 0 0 0 0
1977915765 0.17571196767853792 0.591944662430711 0.45638289438789903 0.2545996468630261 0 0 0 0
1980645294 0.18693752359577037 0.5874918479864905 0.46036413902675183 0.24805413273167953 0 0 0 0
1983374823 0.20929729435750594 0.5864236926177876 0.4624372157480277 0.2496533847171254 0 0 0 0
1986104352 0.21201637760646258 0.5845610425111789 0.4588893486467604 0.25538707716700154 0 0 0 0
1988833881 0.23310802777719597 0.5708340524152277 0.4623193765828256 0.25535364723582515 0 0 0 0
1991563410 0.24044223606369083 0.5710384706289552 0.4637753742124249 0.26137066947008236 0 0 0 0
1994292939 0.2480029869777895 0.5562721464027535 0.4630229922446751 0.2541985739724294 0 0 0 0
1997022468 0.2735330687280521 0.5554143794736653 0.46675923917898543 0.25738941854851455 0 0 0 0
1999751997 0.2692453814588202 0.5434165989965262 0.46501607623697877 0.2507957056611155 0 0 0 0
2002481526 0.28408469217367727 0.5354137578430996 0.4714293300929281 0.2533438757935497 0 0 0 0
2005211055 0.29129941164629836 0.5368674015993964 0.4763979743255853 0.24557122492547648 0 0 0 0
2007940584 0.3038694555678753 0.5201921250530048 0.4760767275370978 0.23989142119729906 0 0 0 0
2010670113 0.31928744540892917 0.5119012889061048 0.4712269702200066 0.2616741425529004 0 0 0 0
2013399642 0.3255001770642699 0.503727554064673 0.4769125672468182 0.253538923503496 0 0 0 0
2016129171 0.33694847757034485 0.49129270263750546 0.4789251676960477 0.25016596067594826 0 0 0 0
2018858700 0.3483816940072439 0.47800864798704856 0.4885808143166681 0.2315094200405864 0 0 0 0
2021588229 0.3545733737476141 0.47964686927695654 0.4875091463694317 0.25019237702489616 0 0 0 0
2024317758 0.36216437902729126 0.4668248094852311 0.49022301551389474 0.24378350529818518 0 0 0 0
2027047287 0.3646092661444835 0.4550241710574338 0.4924890058543173 0.23927040992352633 0 0 0 0
2029776816 0.36253668968123054 0.45936484217502577 0.4829670586603181 0.2558712812045366 0 0 0 0
2032506345 0.39334094821709786 0.4324549990384052 0.4965825691078234 0.24319999464712044 0 0 0 0
2035235874 0.39565596615489607 0.4180123424029689 0.4993868055099272 0.23235358746132412 0 0 0 0
2037965403 0.40697912623338905 0.4094579982732267 0.5024070203499466 0.2349106191703337 0 0 0 0
2040694932 0.41369332817919924 0.40517024217549497 0.5039247125870929 0.24181991337154962 0 0 0 0
2043424461 0.417339886498351 0.39243225375743424 0.5122194849719562 0.2363232356331055 0 0 0 0
2046153990 0.4225422241326548 0.38348965927793455 0.5139200939599855 0.23235478696710707 0 0 0 0
2048883519 0.4217487268211783 0.3760986035222303 0.5083970821742982 0.2490227289763819 0 0 0 0
2051613048 0.4295338083884286 0.3606653632394329 0.5196728608934154 0.23027727439889992 0 0 0 0
2054342577 0.4494645958027748 0.33042020504580877 0.5272805560664185 0.21934772195682198 0 0 0 0
2057072106 0.4379559422779207 0.33302915500944424 0.525419420079014 0.22619789647259303 0 0 0 0
2059801635 0.4431368554315955 0.3269895316708494 0.523857886823493 0.23612771315866968 0 0 0 0
2062531164 0.4438362919865939 0.31557986741046223 0.534501019648277 0.21838606293419446 0 0 0 0
2065260693 0.452818401627874 0.2936998270961631 0.5333146118818008 0.23180566118178722 0 0 0 0
2067990222 0.45144773390725434 0.29223492985249516 0.5351601393947654 0.236733151770967 0 0 0 0
2070719751 0.455978918218983 0.27578127277563097 0.5413846191269345 0.21946311923375283 0 0 0 0
2073449280 0.4697349614644174 0.25344335486545316 0.5488597243936928 0.2165994562615232 0 0 0 0
2076178809 0.45314355089679137 0.25886344316549575 0.5478139782670363 0.22255288479904628 0 0 0 0
2078908338 0.4682066211803296 0.2412950425946678 0.5552619207586225 0.22025905821158434 0 0 0 0
2081637867 0.4715410286305773 0.22195896912784854 0.5578647900917604 0.21298520568462304 0 0 0 0
2084367396 0.4754364171326741 0.2124944822887892 0.5535022926280856 0.23572419811890077 0 0 0 0
2087096925 0.46138415909836467 0.20439748207326094 0.5623595093573021 0.21032610985145983 0 0 0 0
2089826454 0.4769003672891438 0.18158117349174066 0.574652960833814 0.20958537897690135 0 0 0 0
2092555983 0.45980625322504165 0.18728462091685857 0.5711454216907762 0.20365929624583026 0 0 0 0
2095285512 0.47640545839056525 0.1541699806506265 0.5798241905903003 0.2006913975758442 0 0 0 0
2098015041 0.46416090247706443 0.15278246616525068 0.5784446608434292 0.20453073368343536 0 0 0 0
2100744570 0.4562814052202064 0.14488648113767136 0.5855283666512353 0.18727884096919606 0 0 0 0
2103474099 0.4672203389415183 0.12853771721701845 0.5872321074234992 0.1972139186463331 0 0 0 0
2106203628 0.463634386841097 0.11805562720448197 0.5865858937266237 0.21028751290293135 0 0 0 0
2108933157 0.45527044370960285 0.11180729230242943 0.5941458144617536 0.188232474527659 0 0 0 0
2111662686 0.45850913557618717 0.09563954669300932 0.6009105277610055 0.18298321123222458 0 0 0 0
2114392215 0.44750108968700125 0.0771924667998024 0.6059741625397655 0.18001299316244596 0 0 0 0
2117121744 0.44726699556385124 0.05881678545378048 0.6122364368794219 0.17424955897309055 0 0 0 0
2119851273 0.44217553867888093 0.05662928538139807 0.614168860733518 0.17347749747044694 0 0 0 0
2122580802 0.442587317937665 0.05980714080791098 0.6159107919837931 0.16915035519172772 0 0 0 0
2125310331 0.4378938718278 0.032201754704838194 0.6237301012115726 0.15892700830047635 0 0 0 0
2128039860 0.4309229444291219 0.030909123409436735 0.6212913869946979 0.17135830516117911 0 0 0 0
2130769389 0.4294882628576469 0.010508209439455529 0.6311178230427392 0.14807529374402542 0 0 0 0
2133498918 0.4185231716944624 0.0070526153734207465 0.6309297148925663 0.16160981039506378 0 0 0 0
2136228447 0.4162699425738918 -0.005018914209221491 0.6378157185997285 0.1497736076116122 0 0 0 0
2138957976 0.40755023766422777 -0.016675570682693736 0.6403027950954323 0.1520848980115681 0 0 0 0
2141687505 0.4095010516819646 -0.027752043799205723 0.6454643269239791 0.1352391772632395 0 0 0 0
2144417034 0.3985863844861059 -0.028595542836516122 0.6467223939871946 0.13770677365399914 0 0 0 0
2147146563 0.39205625208546485 -0.0358934859533785 0.649357604076853 0.14836348982100903 0 0 0 0
2149876092 0.3858526272277599 -0.05066895753182627 0.660476156121627 0.10619929963795685 0 0 0 0
2152605621 0.37731118428223215 -0.06351830002693165 0.6649162621453656 0.10570755203075864 0 0 0 0
2155335150 0.37298008636017776 -0.05468660852796232 0.6641106123511491 0.1199950295392043 0 0 0 0
2158064679 0.358960131827569 -0.07675683864460675 0.6686067960168794 0.09814953595523378 0 0 0 0
2160794208 0.35167417259078015 -0.084086948574012 0.6735710516717784 0.09445186770697941 0 0 0 0
2163523737 0.34657076484541327 -0.08382461250439488 0.6747209993655837 0.10291566629880057 0 0 0 0
2166253266 0.3407825638977044 -0.09701189832019769 0.6787147157294509 0.0835734094311855 0 0 0 0
2168982795 0.3275308026256631 -0.09864073767252989 0.6823790761524959 0.0762509131420652 0 0 0 0
2171712324 0.3211949436328408 -0.09819074448080588 0.6861808405319513 0.08030954485330234 0 0 0 0
2174441853 0.3133639659518762 -0.10746970670324342 0.6856714302467962 0.07937389153356042 0 0 0 0
2177171382 0.3053489602253181 -0.11389522070503792 0.6958770468159909 0.06448026001466936 0 0 0 0
2179900911 0.29525830872504666 -0.12345911851539183 0.6978192431094831 0.06603324742891517 0 0 0 0
2182630440 0.2871240414184672 -0.12718872453352736 0.6993831381100751 0.06741653858610067 0 0 0 0
2185359969 0.27885090081789893 -0.12755356143961666 0.7012055515791373 0.05696066020809153 0 0 0 0
2188089498 0.26728351800519595 -0.13063999751779012 0.7050431942177949 0.04078578977265427 0 0 0 0
2190819027 0.2598050905659858 -0.14198803434470145 0.7078897788984234 0.010066589119361704 0 0 0 0
2193548556 0.2500233819891126 -0.14376770928608804 0.7130013917231668 0.016249918683527462 0 0 0 0
2196278085 0.23999401920542532 -0.14065910578244495 0.7137507836407196 0.032490825841124095 0 0 0 0
2199007614 0.22831109705086464 -0.15239778795114792 0.7184808307485301 0.001869249796446937 0 0 0 0
2201737143 0.22235869507618158 -0.15037502386601762 0.7204072804134556 0.005322839113807177 0 0 0 0
2204466672 0.21288880970816487 -0.1444787127685018 0.7229502231657117 -0.0023556517799486745 0 0 0 0
2207196201 0.2024069722192047 -0.15022500212724693 0.7195434699567946 -0.01905868336500505 0 0 0 0
2209925730 0.193692503979347 -0.15514789821811711 0.7280224397401025 -0.016527152942160672 0 0 0 0
2212655259 0.18650545398531435 -0.1547653357679794 0.7222999866504842 -0.02014846147633438 0 0 0 0
2215384788 0.17694207740810355 -0.1504840511206945 0.7339777475543718 -0.035820311874175045 0 0 0 0
2218114317 0.16843915747112087 -0.15119458630325994 0.7318469234497577 -0.026416305022687676 0 0 0 0
2220843846 0.15833506936736252 -0.152464632202576 0.7338742362867965 -0.03630645264833316 0 0 0 0
2223573375 0.1537770716464185 -0.1493985107969244 0.7363210615278027 -0.056660014894846865 0 0 0 0
2226302904 0.1369038566197627 -0.1445962703161553 0.734695039581183 -0.054743197815988257 0 0 0 0
2229032433 0.13213748633494868 -0.14857767152536586 0.7401873830813497 -0.07031562660764536 0 0 0 0
2231761962 0.12905394516223728 -0.14409919762188023 0.7374967626065888 -0.07781647985276627 0 0 0 0
2234491491 0.12083714232264735 -0.14115611774976358 0.7387940813464831 -0.09548508015565645 0 0 0 0
2237221020 0.11394103046663503 -0.1344827614616382 0.7480022414472852 -0.08327977365280825 0 0 0 0
2239950549 0.1134309631468324 -0.14032440831112214 0.7423321364886706 -0.09175076460214224 0 0 0 0
2242680078 0.09781990148032337 -0.13160956666477885 0.7473151417072823 -0.08596519231937837 0 0 0 0
2245409607 0.0935760807443678 -0.13546891899321756 0.7420159171621497 -0.12104713207045134 0 0 0 0
2248139136 0.0940447779992051 -0.12813900788058313 0.7479176603705397 -0.12228268130028214 0 0 0 0
2250868665 0.0866450022400502 -0.12506870565267672 0.7504906294146 -0.11381137317245167 0 0 0 0
2253598194 0.07915780325371595 -0.1248337572819155 0.7530432962716486 -0.12427242873915928 0 0 0 0
2256327723 0.07454217655878204 -0.11587954307264915 0.7474351665121612 -0.14645240146742558 0 0 0 0
2259057252 0.07228413694795902 -0.11828782479550445 0.7460628740846265 -0.14093940479151623 0 0 0 0
2261786781 0.06688510406077859 -0.11639623867000908 0.7463379277337385 -0.16923254663605725 0 0 0 0
2264516310 0.05854734651864523 -0.10785944314556833 0.7465815523906348 -0.17201856175753563 0 0 0 0
2267245839 0.053237732373449344 -0.10603835933788272 0.7509848775723309 -0.17784695844230192 0 0 0 0
2269975368 0.04775134522976751 -0.09851238887272291 0.7507445005360853 -0.18013876755445865 0 0 0 0
2272704897 0.053236441652664036 -0.10070605303003395 0.7517914447137307 -0.18299796460440393 0 0 0 0
2275434426 0.04414211858236216 -0.09667332028194996 0.7524182153240302 -0.17490828282148138 0 0 0 0
2278163955 0.04275367285351573 -0.08845925336592117 0.7419324697413197 -0.22122931729367726 0 0 0 0
2280893484 0.03615797959821397 -0.08401248149788543 0.7498337803835013 -0.20116183374647756 0 0 0 0
2283623013 0.039502927836488726 -0.08678339999565654 0.7470707739215614 -0.2322667541808066 0 0 0 0
2286352542 0.033387897594511086 -0.07827218219843725 0.7462087510314177 -0.23418234909902583 0 0 0 0
2289082071 0.03428013512822454 -0.07570484682659745 0.7386435900866942 -0.25497540742290864 0 0 0 0
2291811600 0.029692522029380233 -0.07253244192246835 0.74186508128604 -0.2378658565587779 0 0 0 0
2294541129 0.026787313047394137 -0.06694299537601835 0.7372532910955655 -0.2646905063698987 0 0 0 0
2297270658 0.031090258677014905 -0.06378437511797852 0.7426847464746394 -0.2550028708462778 0 0 0 0
2300000187 0.023165428618208597 -0.06175046630200972 0.7460723748337349 -0.25638129715003316 0 0 0 0
