# HZ S RI R 50
1200000000 0.6168976739615097 0.7154854634475911 0.0011448380194493048 -0.0005626977686367367 0 0 0 0
1202729529 0.6174922124374661 0.7076773434863509 0.0011248486348644359 -0.0006572863892405201 0 0 0 0
1205459058 0.6241805057030595 0.6933248661079916 0.0011424229587709963 -0.0006401820664434604 0 0 0 0
1208188587 0.6271454521160681 0.688652820068662 0.0011889644777107224 -0.0006262410480601532 0 0 0 0
1210918116 0.6444222827798541 0.683696697886067 0.0011118827848593225 -0.0005657042897272079 0 0 0 0
1213647645 0.6588232932154169 0.6678807730408141 0.0012415468902391873 -0.0007392438848981357 0 0 0 0
1216377174 0.6609925819282165 0.6622030835886737 0.0012237007632957487 -0.0006995670734671368 0 0 0 0
1219106703 0.6654995304484834 0.6548102829655148 0.0012425891321986204 -0.0005932717750907144 0 0 0 0
1221836232 0.6859164699340382 0.6347832464918803 0.0012167712781065935 -0.0007372463067912189 0 0 0 0
1224565761 0.6877171760147821 0.6407432277794242 0.0011596495041183053 -0.000672266921886798 0 0 0 0
1227295290 0.6861977064866139 0.62221446969326 0.0012386046705470414 -0.0006961172254286476 0 0 0 0
1230024819 0.7022835440332041 0.6189799086332449 0.0012727874272935311 -0.0008570559726668173 0 0 0 0
1232754348 0.7080589004213212 0.6051678965899346 0.001304415902881479 -0.0007535510784544386 0 0 0 0
1235483877 0.7184283107708093 0.5961762996421246 0.0012422248884587158 -0.0008367841091439184 0 0 0 0
1238213406 0.7272170828058967 0.5849003436401011 0.0013622745374003184 -0.0008630994519760342 0 0 0 0
1240942935 0.7400767422958967 0.5745676901810711 0.0012256874167366604 -0.0008362341054588662 0 0 0 0
1243672464 0.7506055770647656 0.5604004339187568 0.0011594129962625842 -0.000858656076683854 0 0 0 0
1246401993 0.7546903981158647 0.5610193175180186 0.001169276890045264 -0.0008694568529974441 0 0 0 0
1249131522 0.7620817962703578 0.5426059771224899 0.0011913983979789514 -0.0007684052995586113 0 0 0 0
1251861051 0.7663068589353019 0.5354860653066111 0.0012609257984930752 -0.0009968426540921099 0 0 0 0
1254590580 0.7746102747423981 0.518221369107362 0.0011744854645987905 -0.001016777155636588 0 0 0 0
1257320109 0.7817096944297023 0.510433601204241 0.0010851566088623341 -0.0010316444178811745 0 0 0 0
1260049638 0.7836226134624698 0.5012395734995342 0.0012177409682624881 -0.001057417597904754 0 0 0 0
1262779167 0.789422288528933 0.49237742030080806 0.0012012298983258619 -0.0009918440282700367 0 0 0 0
1265508696 0.799248549583834 0.4812380165469294 0.0011194323790016192 -0.0010879431739977143 0 0 0 0
1268238225 0.8077061006117672 0.46879311032049126 0.0010941990461311288 -0.001138403900628719 0 0 0 0
1270967754 0.8187300786921471 0.45118620221187183 0.0011277153268306908 -0.001077383894091306 0 0 0 0
1273697283 0.8159935947918386 0.4465733288556384 0.0009392631169847576 -0.0011234424488694235 0 0 0 0
1276426812 0.8299088622917956 0.4216322841787383 0.0009115437624110437 -0.00121446205200139 0 0 0 0
1279156341 0.8404593748697107 0.4035105426800046 0.0009890892611797803 -0.0012740953322307306 0 0 0 0
1281885870 0.8444739991534672 0.39275011258697046 0.0007816131802751984 -0.0012396386663649334 0 0 0 0
1284615399 0.8447725654820623 0.3902594928226378 0.0010595840574381355 -0.0012581203477459422 0 0 0 0
1287344928 0.8435188118021564 0.38633975886289423 0.0008616025666968227 -0.0012956430056194055 0 0 0 0
1290074457 0.8548803860531112 0.3566467190697642 0.0010502532618896778 -0.0014834705323641868 0 0 0 0
1292803986 0.855919355722219 0.3569232540198273 0.0009400054113605007 -0.0014862479030504179 0 0 0 0
1295533515 0.8618230486221156 0.34451702735686995 0.0008280692659983137 -0.0012536696372773318 0 0 0 0
1298263044 0.8688757874615399 0.3245686461219655 0.0007959948041025859 -0.0012841174179741802 0 0 0 0
1300992573 0.8727177523825701 0.30900361086111233 0.0008290051003341014 -0.0013666342732068803 0 0 0 0
1303722102 0.8771114058946404 0.29401794378905893 0.0006787145104154048 -0.001404357850423577 0 0 0 0
1306451631 0.8800765572309284 0.2814981925846128 0.0006344881180085172 -0.0014087278963327424 0 0 0 0
1309181160 0.8866765504504586 0.2643452358224082 0.0005594681710676171 -0.0013865202354255049 0 0 0 0
1311910689 0.8902720541599833 0.24670460261203145 0.00044213234877952677 -0.0013449544441376416 0 0 0 0
1314640218 0.8956346750690752 0.2269552560803094 0.0005238300687234641 -0.0013987901223725574 0 0 0 0
1317369747 0.9011790809274116 0.20651949366103373 0.0003186316024033235 -0.0014041686541523054 0 0 0 0
1320099276 0.9026107074211333 0.18776654153127245 0.0003753797875394276 -0.001429396907130334 0 0 0 0
1322828805 0.9007005877457503 0.18479378920386377 0.0004222914557073381 -0.0015279847696173757 0 0 0 0
1325558334 0.9017150787967081 0.17217985478757813 0.0003199870767941496 -0.0013404871117559567 0 0 0 0
1328287863 0.9066984132811972 0.1448422390879069 0.00028091600934937753 -0.0013186787144697835 0 0 0 0
1331017392 0.9112539840948736 0.12363135181583793 0.00027751844441117315 -0.0014854578942454482 0 0 0 0
1333746921 0.9088930378487659 0.1090793958161129 0.00021373282405554272 -0.001367380120241959 0 0 0 0
1336476450 0.9126162077009201 0.09986331362511586 0.00011536228085338166 -0.0014151599465766615 0 0 0 0
1339205979 0.9131123540525097 0.08225947118228111 2.1531737050663362e-05 -0.0013761267727548218 0 0 0 0
1341935508 0.913589220269075 0.059110538557969765 -2.055692485417992e-05 -0.0013358821971321342 0 0 0 0
1344665037 0.9135988554135355 0.037866491491541615 -0.00016433064469949447 -0.001364272368656313 0 0 0 0
1347394566 0.9112159570426807 0.02550020530264427 -0.00021806338131463135 -0.001303788775296339 0 0 0 0
1350124095 0.9084188297350079 -0.008829576144712506 -0.00022015962661844508 -0.0013722407134193536 0 0 0 0
1352853624 0.9065444362790724 -0.007833497331575578 -0.000260199416697527 -0.0011534436215224725 0 0 0 0
1355583153 0.910837216763287 -0.031793304042174404 -0.0002873411895961857 -0.0012051118940738443 0 0 0 0
1358312682 0.9051161514860794 -0.05238289252472741 -0.00021458003760584384 -0.0013224313859522352 0 0 0 0
1361042211 0.9039971054641629 -0.07661997576039718 -0.00046456053745782 -0.0010443039695501668 0 0 0 0
1363771740 0.9036729383330442 -0.07900004730035623 -0.0005729933114883356 -0.0010876558153555388 0 0 0 0
1366501269 0.8954810980883234 -0.11877289106767727 -0.0005888891192542181 -0.001011712461257446 0 0 0 0
1369230798 0.8885655539311151 -0.13113409256047656 -0.0007523421835936588 -0.000962959552591877 0 0 0 0
1371960327 0.880936065059419 -0.15151303441665223 -0.0007434586436465831 -0.0009094974218161357 0 0 0 0
1374689856 0.888729038336133 -0.17816144398842143 -0.0009524472006917008 -0.0007398614932075914 0 0 0 0
1377419385 0.8757258997651566 -0.18169413553313074 -0.0009459394299148755 -0.0006777531137909221 0 0 0 0
1380148914 0.8684252492392334 -0.20529238482673234 -0.001049184530211226 -0.0005507132891567149 0 0 0 0
1382878443 0.8643673663451862 -0.22636375705201497 -0.0010666989562631742 -0.00045930895413661093 0 0 0 0
1385607972 0.850636987739955 -0.2593569465381936 -0.001315427519821407 -0.0003819716731334321 0 0 0 0
1388337501 0.84044931878118 -0.28180909619995104 -0.0014053457594578641 -0.00022056056066251337 0 0 0 0
1391067030 0.8381237152430269 -0.29786010126501944 -0.0014209877658217524 -6.072723073247894e-05 0 0 0 0
1393796559 0.8271193982222752 -0.3159791039693397 -0.0013936537478844247 -6.0369578653092894e-05 0 0 0 0
1396526088 0.8140298822410476 -0.3462170998554939 -0.0014209680109034434 0.0001468914694651025 0 0 0 0
1399255617 0.8024978398359056 -0.36050936127846256 -0.0017106975114553698 0.00039622522446426634 0 0 0 0
1401985146 0.7797527353468835 -0.3923074359605868 -0.0016373475696565122 0.0006386448756206893 0 0 0 0
1404714675 0.7764889185945136 -0.4022498492765739 -0.0018167871009228851 0.0009562620536426239 0 0 0 0
1407444204 0.7493904601224387 -0.43526457765811793 -0.0016025402716240964 0.0012663555773118136 0 0 0 0
1410173733 0.7379607047016471 -0.45986179841362806 -0.0017713008523188667 0.001525732567759778 0 0 0 0
1412903262 0.718925427813912 -0.4780580872057953 -0.001751026782234663 0.0018119520637695215 0 0 0 0
1415632791 0.7015379449045297 -0.48843685300285483 -0.0017409078211643694 0.0021241364252800534 0 0 0 0
1418362320 0.680979190382135 -0.5130036233572098 -0.001747661022334258 0.002625205141376857 0 0 0 0
1421091849 0.649697940474187 -0.541702145367386 -0.0013781206818587097 0.003052256883615573 0 0 0 0
1423821378 0.6251636315190461 -0.564454847565227 -0.0013930248586812323 0.003514105890659585 0 0 0 0
1426550907 0.594735964625918 -0.5852713638940685 -0.0014312723118363306 0.003984610793779536 0 0 0 0
1429280436 0.576277852843181 -0.5992258103379958 -0.0009334641916879807 0.004500252095442004 0 0 0 0
1432009965 0.5449702166204051 -0.6148867822450962 -0.0007095634642215739 0.005086394673006633 0 0 0 0
1434739494 0.5140393903183302 -0.6312555911316996 -0.00042735089390504575 0.005397754937744862 0 0 0 0
1437469023 0.4786424431659301 -0.6589924541167338 -4.5918187442481854e-05 0.006230481192007649 0 0 0 0
1440198552 0.4440993208802303 -0.6626158431006327 0.0005472545977201897 0.006724548232704285 0 0 0 0
1442928081 0.40463174125635293 -0.6822896986065791 0.0011043743918870803 0.007434060780377091 0 0 0 0
1445657610 0.369920281950056 -0.6900921826391955 0.0020866799092000288 0.008160075411081881 0 0 0 0
1448387139 0.3231225132088904 -0.6959879250024424 0.0028273413486366635 0.008753920968970418 0 0 0 0
1451116668 0.28171226747310524 -0.6974582489263851 0.0037141558590076044 0.009149449487274286 0 0 0 0
1453846197 0.23185934738697714 -0.7064824663679131 0.0048903728437091655 0.009854753943938855 0 0 0 0
1456575726 0.19413936863779477 -0.69066531890169 0.006431489716547272 0.010151007120356171 0 0 0 0
1459305255 0.13592548148458103 -0.6908475710702543 0.008047371521430629 0.010395805804210746 0 0 0 0
1462034784 0.09040861640692542 -0.6839993716846681 0.009956065546424125 0.010486818799685715 0 0 0 0
1464764313 0.05340401008812995 -0.6675500789829855 0.011464442096452584 0.011015229177178041 0 0 0 0
1467493842 -0.002560715237807108 -0.6465842162308533 0.013827149305795181 0.010219068257813234 0 0 0 0
1470223371 -0.03558843348534699 -0.6159096230141937 0.015750187337876993 0.009876033621382199 0 0 0 0
1472952900 -0.08427327330037664 -0.5827183105009804 0.018223120937355373 0.008769319442490263 0 0 0 0
1475682429 -0.12120654798913992 -0.5489649126651518 0.020467201492504642 0.007793902109837235 0 0 0 0
1478411958 -0.16343850532077814 -0.5137666067288503 0.02338390613773624 0.005027434051826802 0 0 0 0
1481141487 -0.1806506495501671 -0.4599874567965245 0.02536671596136847 0.0034995646989952034 0 0 0 0
1483871016 -0.20594070945004034 -0.41939490891653414 0.02759196067749467 0.00043496362619474587 0 0 0 0
1486600545 -0.21843121464789264 -0.3649499981006308 0.0293371300831084 -0.0028730454443887067 0 0 0 0
1489330074 -0.22590406920929842 -0.3165056901184206 0.03072211525664202 -0.006182177145695664 0 0 0 0
1492059603 -0.22744940832846913 -0.2662866998908721 0.031375732128590114 -0.010809322573129769 0 0 0 0
1494789132 -0.2204254662747021 -0.2226467354436727 0.031743480942601626 -0.015407944674734426 0 0 0 0
1497518661 -0.2064192619930379 -0.1765038737291443 0.0315772216535405 -0.019265603059178286 0 0 0 0
1500248190 -0.1868735648492446 -0.14273216543911715 0.030264380840305482 -0.023883855616440918 0 0 0 0
1502977719 -0.1664700586192029 -0.1064421857462076 0.028736303627053567 -0.02783889769726055 0 0 0 0
1505707248 -0.14311657144457146 -0.08066486017110297 0.02635815705295181 -0.03214151956554334 0 0 0 0
1508436777 -0.11889732884359329 -0.0575036900421701 0.02310069879884912 -0.036376597129869175 0 0 0 0
1511166306 -0.09494839594438062 -0.04223567449212071 0.019464135151384388 -0.03989820834918933 0 0 0 0
1513895835 -0.0719197426586874 -0.030802365421393745 0.015108170468412504 -0.04323935101380477 0 0 0 0
1516625364 -0.049686896703699295 -0.02664370281711808 0.01095683634442427 -0.04561271268343523 0 0 0 0
1519354893 -0.031166927653022473 -0.022479284059557597 0.006105945885643044 -0.04742235443548078 0 0 0 0
1522084422 -0.014765060381424895 -0.019144789839417 0.0003362375610269296 -0.048987607959142844 0 0 0 0
1524813951 -0.0006364387677170328 -0.018633270782511015 -0.004579875579635918 -0.04955284914089145 0 0 0 0
1527543480 0.009478993445858187 -0.016908420847070973 -0.008886153816904871 -0.050091431088056006 0 0 0 0
1530273009 0.021421657310774785 -0.02074186308417837 -0.013806927437744811 -0.049869947827338106 0 0 0 0
1533002538 0.026597722012523382 -0.019793542957299563 -0.019627578229927778 -0.048810478740433795 0 0 0 0
1535732067 0.03309530759025085 -0.021444052880006555 -0.024896247319495506 -0.04738292582259699 0 0 0 0
1538461596 0.03758940437187779 -0.021158691489296447 -0.02912889322822238 -0.04573628353452802 0 0 0 0
1541191125 0.04295394309588901 -0.022171029945214103 -0.03430293736457782 -0.04310140722124041 0 0 0 0
1543920654 0.0445871999427988 -0.01889193081929201 -0.03873452002743132 -0.04002504522950778 0 0 0 0
1546650183 0.04508136951598128 -0.012882337555688536 -0.04214987856743556 -0.03747217015685344 0 0 0 0
1549379712 0.049317323613438865 -0.011777663676217747 -0.04601534787356932 -0.03390221031145401 0 0 0 0
1552109241 0.05525812597219129 -0.010727072133753596 -0.049358881210841934 -0.030306231250233878 0 0 0 0
1554838770 0.0520493060681539 0.0016880414163240889 -0.053090670122767865 -0.024822630061622424 0 0 0 0
1557568299 0.06335558346105388 0.0003123345511399583 -0.055705460590428656 -0.02012750503874814 0 0 0 0
1560297828 0.06568810033494273 0.007617986457832402 -0.05782518778188152 -0.015799198852720086 0 0 0 0
1563027357 0.07101771463939029 0.012579461491628002 -0.060082467469155014 -0.010229036183870372 0 0 0 0
1565756886 0.08219104854420123 0.015504697327523376 -0.06094902782206283 -0.005699078170710586 0 0 0 0
1568486415 0.09096031448232737 0.01858816218751386 -0.062164193319937236 -0.00036313977843406976 0 0 0 0
1571215944 0.10105317647747275 0.021660060995941532 -0.06256082390552423 0.0049300816289037964 0 0 0 0
1573945473 0.10770543222719063 0.02420899717397796 -0.06213267849164522 0.01171482782746868 0 0 0 0
1576675002 0.12372234886222346 0.02284999367927019 -0.06213076206579975 0.014608116251798153 0 0 0 0
1579404531 0.12413793771497166 0.027838498060741977 -0.06128230422387038 0.02102930196333723 0 0 0 0
1582134060 0.1418569508263831 0.022122757338385323 -0.059649121092126604 0.025675678261645928 0 0 0 0
1584863589 0.14689755858387746 0.022589069154549838 -0.05747605650624107 0.031272000853316016 0 0 0 0
1587593118 0.16297346061058254 0.01579585760446269 -0.05506972061160149 0.036580764439673084 0 0 0 0
1590322647 0.17213728943585535 0.009869439215652191 -0.052385586933023226 0.041133311544142334 0 0 0 0
1593052176 0.1808066245099272 0.0028451554859211816 -0.04951893353394856 0.04548525608287285 0 0 0 0
1595781705 0.18795061392530799 -0.003708738406456797 -0.04590671886174341 0.04971090314176721 0 0 0 0
1598511234 0.1937762851287814 -0.01637023090152227 -0.04218620019966016 0.053525596853162126 0 0 0 0
1601240763 0.20210288810629728 -0.024884082049775217 -0.03841719058633311 0.056935636648228316 0 0 0 0
1603970292 0.20841075469224488 -0.03699614161203141 -0.03442115699874802 0.06054065782990033 0 0 0 0
1606699821 0.21020488095435 -0.04423871187041719 -0.029109753232509757 0.06377556916563268 0 0 0 0
1609429350 0.2115149831913262 -0.0626000349788112 -0.024918354628685614 0.06602109731572613 0 0 0 0
1612158879 0.2146107871061005 -0.07441955531766876 -0.01971213322675954 0.06818013880773524 0 0 0 0
1614888408 0.21346333035211867 -0.0892963787402492 -0.013950940980563183 0.0703398340231885 0 0 0 0
1617617937 0.2140763319859844 -0.10357061614965075 -0.010909598968144831 0.07143932728831714 0 0 0 0
1620347466 0.2076434369834429 -0.11577705376498977 -0.0041468741028472915 0.07261220517774705 0 0 0 0
1623076995 0.1997884232950651 -0.12849634432750306 0.002035006478330824 0.07331162429147663 0 0 0 0
1625806524 0.19120325761286666 -0.14243131355972338 0.006739969868592332 0.07411221332692888 0 0 0 0
1628536053 0.1866072014847633 -0.15599791173620006 0.012571010357130288 0.07392855312037451 0 0 0 0
1631265582 0.17502276599153838 -0.16394698332727148 0.018276820000746007 0.07301019842376022 0 0 0 0
1633995111 0.16479837825079688 -0.17537565993862098 0.02352525337606271 0.0723190251195032 0 0 0 0
1636724640 0.15518861174147816 -0.18256971683376766 0.02844727368475507 0.07142569195354963 0 0 0 0
1639454169 0.13317905249745202 -0.19567314139998193 0.0347107652622051 0.06962199744991182 0 0 0 0
1642183698 0.11843916961994856 -0.2007990551226919 0.040808519737994584 0.06640541468193546 0 0 0 0
1644913227 0.10837022710645683 -0.20357665803531927 0.044532553083652775 0.06503403864888348 0 0 0 0
1647642756 0.08616024173490351 -0.21176834763884955 0.049936639484851074 0.06254780017183129 0 0 0 0
1650372285 0.0767835391662874 -0.21004180768879013 0.05443502565943335 0.05929642966628216 0 0 0 0
1653101814 0.05698511672358942 -0.2122725927197282 0.05993612492771762 0.05481111832244786 0 0 0 0
1655831343 0.04208378742183838 -0.20813463714162994 0.0634551345244602 0.0520216863276424 0 0 0 0
1658560872 0.016729584554716917 -0.2107951711990125 0.06868228042797166 0.04607189157729499 0 0 0 0
1661290401 0.0020054096044136733 -0.2080812017287503 0.07249423970242792 0.041738898686125035 0 0 0 0
1664019930 -0.011653548932962818 -0.1969271646114323 0.07615429526322516 0.03556043858431272 0 0 0 0
1666749459 -0.02911280215255664 -0.1945510664799717 0.07879351321245083 0.03242313973487972 0 0 0 0
1669478988 -0.04059319003132768 -0.18500218046720637 0.08172733506418112 0.027639227947852122 0 0 0 0
1672208517 -0.05974521176170487 -0.17580425005574615 0.0840462009977879 0.02238228520564707 0 0 0 0
1674938046 -0.07181181337641462 -0.1613365950901 0.08666716215723985 0.013790181122693868 0 0 0 0
1677667575 -0.08996286169574337 -0.15649975229853932 0.08772968715204378 0.008482538711819768 0 0 0 0
1680397104 -0.09571121991912705 -0.14326895019918034 0.08912821584363849 0.004764915664876414 0 0 0 0
1683126633 -0.10635884721887653 -0.12089394987410898 0.08985253256298396 -0.004332761229332077 0 0 0 0
1685856162 -0.12140420974419826 -0.11985744256516323 0.09068994633238091 -0.010725990277207366 0 0 0 0
1688585691 -0.12724524900700349 -0.09620290521510967 0.09021912252459216 -0.01598844489079097 0 0 0 0
1691315220 -0.13221076547170382 -0.08258691591616135 0.08889850821840413 -0.023862125791300974 0 0 0 0
1694044749 -0.1385735022456764 -0.06469979818363429 0.0869357344656245 -0.03131645632031459 0 0 0 0
1696774278 -0.14634331401919243 -0.056729587576626814 0.08575202900821788 -0.036792749437870156 0 0 0 0
1699503807 -0.14600718183540096 -0.03496806980980425 0.083831537133793 -0.04321822939275094 0 0 0 0
1702233336 -0.1481402165360169 -0.01721572522201324 0.08103031889539464 -0.04941951511185128 0 0 0 0
1704962865 -0.14945776918412337 -0.001775450647225078 0.07797817426363503 -0.05570611005067641 0 0 0 0
1707692394 -0.1498015658497871 0.007536841580393777 0.07648309004244135 -0.05839974169493788 0 0 0 0
1710421923 -0.14992208210827182 0.022757724358645738 0.07101784210768952 -0.06601127486946609 0 0 0 0
1713151452 -0.1486765199374146 0.03896347347563672 0.06674581822299751 -0.07149200347460441 0 0 0 0
1715880981 -0.14585484171041 0.051469956317932365 0.05869982902480561 -0.07800182709528505 0 0 0 0
1718610510 -0.14349211677369775 0.06446815198711664 0.05573083680459752 -0.08135456920023451 0 0 0 0
1721340039 -0.14159919800843912 0.07005898169421867 0.04896699143267 -0.08623452993131919 0 0 0 0
1724069568 -0.13667566504069592 0.09674248921727964 0.044395805172722534 -0.0892430269442908 0 0 0 0
1726799097 -0.13323319825110372 0.09957149014048089 0.03672665942488352 -0.09267523061146127 0 0 0 0
1729528626 -0.126782999515811 0.11150878142271799 0.031139083872225793 -0.09563973828902192 0 0 0 0
1732258155 -0.12376241433061029 0.12627462495766348 0.02375466542377755 -0.09823916789924156 0 0 0 0
1734987684 -0.11851958297985124 0.1353225995295757 0.018728107948195523 -0.09967757548707146 0 0 0 0
1737717213 -0.10994800119612314 0.13997613956839017 0.01055637746968971 -0.100996511912805 0 0 0 0
1740446742 -0.10675349159931077 0.15615060303109776 0.003901600178250254 -0.10180525392216119 0 0 0 0
1743176271 -0.09831033204107695 0.16203019649138145 -0.004422953909002385 -0.10225233834263296 0 0 0 0
1745905800 -0.09379899293093157 0.18011702459649914 -0.010305779136550893 -0.10171387801599405 0 0 0 0
1748635329 -0.08468497785610749 0.18706097370005015 -0.019564448848115475 -0.1004753637152477 0 0 0 0
1751364858 -0.08336166561225096 0.19591018660489642 -0.024660391941336256 -0.10040430480415621 0 0 0 0
1754094387 -0.07160822735385124 0.20561112774235538 -0.03378535986832686 -0.09753843643823698 0 0 0 0
1756823916 -0.0642407804313774 0.2121110837259574 -0.042147462477564394 -0.09450070163152031 0 0 0 0
1759553445 -0.054556293553968405 0.21443732441654345 -0.04935586434838309 -0.09100695786871807 0 0 0 0
1762282974 -0.04787071822946628 0.2291163731393595 -0.05421127474120574 -0.08776345979237617 0 0 0 0
1765012503 -0.038430490391457676 0.22906990577934264 -0.06067389002005711 -0.08402272131625636 0 0 0 0
1767742032 -0.03430653406269998 0.24160731599044938 -0.06642553371683511 -0.07953341882637063 0 0 0 0
1770471561 -0.022251083370966127 0.2431387488117764 -0.07398817460322808 -0.0734449800184875 0 0 0 0
1773201090 -0.013462032180911597 0.2584271282391054 -0.07820264646087312 -0.06805116067978442 0 0 0 0
1775930619 -0.0023656660361599997 0.25784842237334216 -0.08312821783761594 -0.0624805312876002 0 0 0 0
1778660148 0.00982195449271771 0.26433783159466406 -0.08666981057964367 -0.05775750812608775 0 0 0 0
1781389677 0.014400461284649621 0.2690062686415814 -0.0913600602818905 -0.04987245611824128 0 0 0 0
1784119206 0.032213153429746 0.2692425273794702 -0.09474656361615048 -0.04284820644003683 0 0 0 0
1786848735 0.03764004375133435 0.2780924477164591 -0.09771383247985473 -0.03560552921736726 0 0 0 0
1789578264 0.05274908936453767 0.27625231731400207 -0.0998689857652268 -0.028212753892174234 0 0 0 0
1792307793 0.06525137478816889 0.2770991294831063 -0.10107163101739099 -0.020761256141196782 0 0 0 0
1795037322 0.07834385474479023 0.2748114392710461 -0.10269431763289857 -0.011864134883207325 0 0 0 0
1797766851 0.09290079000776155 0.27434958264151393 -0.10288317335331691 -0.0018850670710071104 0 0 0 0
1800496380 0.09347119230380868 0.27604160410283807 -0.10306754344812516 0.004894700328079052 0 0 0 0
1803225909 0.11013134530441653 0.2682094768285742 -0.1022230562214582 0.011914518646727454 0 0 0 0
1805955438 0.11757226043481521 0.2642098890334076 -0.10073667718631032 0.02150629369137847 0 0 0 0
1808684967 0.12758239764698998 0.2576527244603202 -0.09877592990341733 0.02868853697846214 0 0 0 0
1811414496 0.13874950096002886 0.2468358018057986 -0.0958151106879508 0.036589299886728335 0 0 0 0
1814144025 0.1442725654734272 0.23867207473171165 -0.09239386993582441 0.04393327238068981 0 0 0 0
1816873554 0.15230355939004867 0.22976532289393525 -0.08714554524115799 0.05345674388459172 0 0 0 0
1819603083 0.1500305550160662 0.21790838998640671 -0.08253117006065766 0.060535152089943194 0 0 0 0
1822332612 0.15110640104538822 0.2070088466501684 -0.0774335510090961 0.06643902937383381 0 0 0 0
1825062141 0.14949802850935212 0.1922619169044721 -0.07159935449940562 0.07219618261594707 0 0 0 0
1827791670 0.14387656835593224 0.18387776616737117 -0.06494624562723743 0.07797343922762887 0 0 0 0
1830521199 0.1406095066797038 0.17135862749722866 -0.05554294597093969 0.08426378223638215 0 0 0 0
1833250728 0.12571991614122047 0.1629384530444497 -0.04824335977666544 0.0878306348794825 0 0 0 0
1835980257 0.11257336080210072 0.1551508569274028 -0.041365571147145536 0.09257025898859614 0 0 0 0
1838709786 0.09758593655222245 0.14965161693403187 -0.02991195928315393 0.0943442037615013 0 0 0 0
1841439315 0.0796464424365578 0.14615148865426647 -0.020272402648353147 0.0953894301854038 0 0 0 0
1844168844 0.06017741882684451 0.1496227235148157 -0.010198073968056278 0.09551021635909276 0 0 0 0
1846898373 0.03836186649022617 0.1577349656460293 -0.00023617042806727977 0.09459828371198155 0 0 0 0
1849627902 0.013632322362688874 0.17027512126058583 0.009256862967556883 0.09238153187263844 0 0 0 0
1852357431 -0.003382293462524749 0.18317847062000298 0.01735849272599071 0.08912295964362174 0 0 0 0
1855086960 -0.024472916790515335 0.20775460103224216 0.0269009949317639 0.0840985393408641 0 0 0 0
1857816489 -0.03539368256477496 0.23718016085899865 0.035749206228957185 0.07805512969273584 0 0 0 0
1860546018 -0.05208170658235133 0.26925014306439665 0.042832070346904984 0.07095457660159424 0 0 0 0
1863275547 -0.05592600175290406 0.30199041877431393 0.04665509910993198 0.06468181566654682 0 0 0 0
1866005076 -0.06206109348994753 0.3352163563470069 0.052294164870564465 0.05554246274346818 0 0 0 0
1868734605 -0.05162448536365599 0.37645221715173705 0.05489590464079903 0.0479715731522499 0 0 0 0
1871464134 -0.04924403139597366 0.412815186575164 0.05660866681049677 0.039982506397606414 0 0 0 0
1874193663 -0.028487112886236694 0.451953415860346 0.057617211824121065 0.03223737753006407 0 0 0 0
1876923192 -0.01886580677243948 0.47661984425389586 0.05653129656799097 0.02496630842398744 0 0 0 0
1879652721 0.024275851904818388 0.5153157107454066 0.05595428263795163 0.017095674698901456 0 0 0 0
1882382250 0.05241506512175096 0.5406395923109918 0.053970560164541936 0.012457543148256655 0 0 0 0
1885111779 0.07817773559946518 0.5591686173573699 0.05107961028145294 0.007281656867645671 0 0 0 0
1887841308 0.12254279767830141 0.5835422673821867 0.04848750227661469 0.0012818862812843017 0 0 0 0
1890570837 0.15165181617857384 0.5961505536530184 0.045237810575697285 -0.0019265862243232977 0 0 0 0
1893300366 0.18230160887379626 0.6090146485300943 0.042255056792325926 -0.005430751556853195 0 0 0 0
1896029895 0.22766198993895265 0.6091224480339036 0.03930839850642748 -0.007899860219388974 0 0 0 0
1898759424 0.2549264312889334 0.623917966741432 0.03628185634844439 -0.009848648932704202 0 0 0 0
1901488953 0.28723453927226866 0.6206501392411578 0.032781167511719056 -0.012603839813119105 0 0 0 0
1904218482 0.32928597534629794 0.6167040280369722 0.02994098166593211 -0.01357264079103363 0 0 0 0
1906948011 0.3585606152675074 0.6135932280317774 0.02716344210114313 -0.014831956151093655 0 0 0 0
1909677540 0.38217753933672716 0.6109247259504242 0.024733226730180375 -0.015212631423823082 0 0 0 0
1912407069 0.4238987117593675 0.5978863383186879 0.022588030701665304 -0.01576198567248777 0 0 0 0
1915136598 0.43904692356195707 0.5999401936470727 0.0197478208574224 -0.016318635047108218 0 0 0 0
1917866127 0.4801744961010842 0.5789508339398881 0.01761215721926384 -0.0163784399913327 0 0 0 0
1920595656 0.49241871564928535 0.5705835493526641 0.015805971771192997 -0.016264431832149026 0 0 0 0
1923325185 0.5429569820830679 0.547910483320237 0.01359585183509843 -0.01666101637457157 0 0 0 0
1926054714 0.5579513729011839 0.5377842467937648 0.012056831880799939 -0.016249237294007485 0 0 0 0
1928784243 0.5790043897242053 0.5258902194828675 0.01088713972871958 -0.015722038360265454 0 0 0 0
1931513772 0.5944159402755016 0.5185925810031213 0.009356208646703779 -0.01515140788159507 0 0 0 0
1934243301 0.6153279912347153 0.49893244523451613 0.007951263836998047 -0.014891120333517938 0 0 0 0
1936972830 0.6431362390269371 0.47272931700716486 0.006667172398573198 -0.01436318382866308 0 0 0 0
1939702359 0.6539425027695781 0.4706395898448334 0.0055287868759030115 -0.013973936831866497 0 0 0 0
1942431888 0.6697492129072803 0.45198018825735164 0.004823078815916362 -0.013507444187361523 0 0 0 0
1945161417 0.6853073057739567 0.43785082868491204 0.003727410426693652 -0.012854428116857988 0 0 0 0
1947890946 0.7084712793656993 0.4110155511100382 0.0031000424920269503 -0.012306565676826352 0 0 0 0
1950620475 0.722570742719431 0.3887639514112737 0.0021245856234816257 -0.011811871198440462 0 0 0 0
1953350004 0.7304867938331042 0.37911508835504104 0.0016331318175716776 -0.011243576652714367 0 0 0 0
1956079533 0.7548644528210047 0.34260713452792346 0.0010851947627987944 -0.01074680521265514 0 0 0 0
1958809062 0.763434583547506 0.33059160568129187 0.0005902245212413958 -0.010123898937622323 0 0 0 0
1961538591 0.7646364459497329 0.3286482675445219 0.0003130587377102831 -0.009852839855330791 0 0 0 0
1964268120 0.7879059435554969 0.2753806251797089 -0.000566721900170336 -0.009296996845438808 0 0 0 0
1966997649 0.7907605539050735 0.274624936162343 -0.00021258747676703772 -0.009012951763366299 0 0 0 0
1969727178 0.8052273110784745 0.24172349258363462 -0.0013048841715843022 -0.00852508660353646 0 0 0 0
1972456707 0.8167807960073574 0.23902729825118318 -0.001232005492152619 -0.007968274738111125 0 0 0 0
1975186236 0.8177155450069988 0.21236357877812448 -0.0015479043151356352 -0.00745638705826208 0 0 0 0
1977915765 0.8243478470843162 0.2080381771021696 -0.0014342581583532312 -0.0073460494060629345 0 0 0 0
1980645294 0.8289303636348178 0.18682841832889355 -0.001795758593049784 -0.006844619443149725 0 0 0 0
1983374823 0.8393557426035088 0.15430274217679113 -0.002119215367708301 -0.0062973950283614095 0 0 0 0
1986104352 0.8460755683368308 0.14768088397365686 -0.0021310854445528663 -0.006121385018697265 0 0 0 0
1988833881 0.8477164058514849 0.11982485459800989 -0.0024128378719019644 -0.005743203110129396 0 0 0 0
1991563410 0.8551331764550334 0.10790671019858204 -0.002358303530285823 -0.005301840438478004 0 0 0 0
1994292939 0.8533802162317876 0.08781853451417908 -0.0025320906077980314 -0.005308533797415452 0 0 0 0
1997022468 0.8619614149980355 0.06346979618136424 -0.002516761272890398 -0.004941730583504912 0 0 0 0
1999751997 0.8654497455847232 0.04226121998918824 -0.002502425332513541 -0.0048410077848085745 0 0 0 0
2002481526 0.8681807615321341 0.018222985706403228 -0.0027652995272393274 -0.0043988883388974605 0 0 0 0
2005211055 0.8679923011021127 0.019808575347959247 -0.0027555285583947165 -0.004205325473573327 0 0 0 0
2007940584 0.8729918047324489 -0.007415689931397479 -0.0025693757782419453 -0.004036367911651241 0 0 0 0
2010670113 0.8664763843548733 -0.025195466773643326 -0.0027367773658528807 -0.004020335701502236 0 0 0 0
2013399642 0.8703208775890567 -0.05507705098974218 -0.0028018120944472997 -0.003623811126258747 0 0 0 0
2016129171 0.8665988270613462 -0.04302413887599703 -0.0028614695549634118 -0.0034295791580370803 0 0 0 0
2018858700 0.8764972957269905 -0.06243675489199018 -0.002759442724775923 -0.0033694863247957473 0 0 0 0
2021588229 0.8648945744291602 -0.10827928313678817 -0.0030041176724959775 -0.0031648357240690035 0 0 0 0
2024317758 0.8662349091110101 -0.13171753256065785 -0.0029593405381456795 -0.002878847429485503 0 0 0 0
2027047287 0.8706922960247087 -0.15110760523694766 -0.0029332301489709838 -0.0026762811900705673 0 0 0 0
2029776816 0.8627921147635963 -0.157671836480938 -0.0029397152820345588 -0.0025756530117598602 0 0 0 0
2032506345 0.8672816138839048 -0.16734407359979026 -0.00319250699795365 -0.002652913788703494 0 0 0 0
2035235874 0.8630503925371134 -0.18218793509668044 -0.0028173427723054843 -0.0024823887843975377 0 0 0 0
2037965403 0.8530778006704771 -0.20186531994106507 -0.0028559610186878904 -0.002216855996314129 0 0 0 0
2040694932 0.854804082733527 -0.22786163061181772 -0.0027488007200401196 -0.0021498432229412365 0 0 0 0
2043424461 0.8494697287396098 -0.261338564787752 -0.002906867391579945 -0.0019592426305313207 0 0 0 0
2046153990 0.8452029589590058 -0.2513698019037098 -0.002673547297047542 -0.0019383092916180472 0 0 0 0
2048883519 0.8380022166807733 -0.2827326318044614 -0.0027567932843916543 -0.0018058993633609057 0 0 0 0
2051613048 0.8375387007853157 -0.29909813574139565 -0.0028031632186717695 -0.0014744308253172508 0 0 0 0
2054342577 0.8356200991715467 -0.31003486100874716 -0.0027599462155856094 -0.0015937478171900226 0 0 0 0
2057072106 0.8389163423642607 -0.29864489790256005 -0.002515891911877956 -0.001613882867284007 0 0 0 0
2059801635 0.8184951042445372 -0.35331508397931977 -0.002170437013371031 -0.0013268186938276613 0 0 0 0
2062531164 0.82867764686715 -0.3349997999781611 -0.002307446761448762 -0.001384675611309398 0 0 0 0
2065260693 0.8072234773169467 -0.37059779302402074 -0.00239605229452102 -0.0012044043568831698 0 0 0 0
2067990222 0.8039115089267294 -0.374417296868029 -0.002165482653331434 -0.0010482565246923183 0 0 0 0
2070719751 0.8059017451865058 -0.380485693729232 -0.002200296731575523 -0.0010938696506711141 0 0 0 0
2073449280 0.7923896243460393 -0.418158273709821 -0.002157059507559602 -0.0008114285482554314 0 0 0 0
2076178809 0.7945606201114361 -0.418463765681812 -0.0021149054365262286 -0.0010912475336768068 0 0 0 0
2078908338 0.7750397770379055 -0.4531996539176405 -0.0018829729668485547 -0.0008941365922805341 0 0 0 0
2081637867 0.7850967989954943 -0.45550088798753147 -0.0020311009977133183 -0.0008956012276575139 0 0 0 0
2084367396 0.768331986125359 -0.46845263788363994 -0.0018794782307945442 -0.0007955593023532553 0 0 0 0
2087096925 0.7782157232821951 -0.457258177514883 -0.0018301062948931008 -0.0009252708866686445 0 0 0 0
2089826454 0.7391451371534743 -0.5075859636718061 -0.0018858543731801632 -0.0005512027328468527 0 0 0 0
2092555983 0.7617455612815466 -0.4904453054363373 -0.0019324400772994723 -0.0007958668589685143 0 0 0 0
2095285512 0.7320009667581089 -0.5179114374486524 -0.0017299268986430481 -0.0007434530750113197 0 0 0 0
2098015041 0.7250676827276321 -0.541846083795731 -0.0017156855725699207 -0.0007808221135431884 0 0 0 0
2100744570 0.7287305826639959 -0.5484259759463631 -0.0017743788211050514 -0.0007401600432397576 0 0 0 0
2103474099 0.7191141235537046 -0.5607001186376296 -0.0017194734116777624 -0.000563906224221392 0 0 0 0
2106203628 0.6941769307960584 -0.5939712451811269 -0.0016185045514177272 -0.0007796069621820494 0 0 0 0
2108933157 0.7066219044032095 -0.5685234452128747 -0.001506062315158995 -0.0004607798567504007 0 0 0 0
2111662686 0.6931534727641979 -0.5956971047904378 -0.0015087875060281113 -0.0005943810122093088 0 0 0 0
2114392215 0.6814781945680315 -0.6184126312196468 -0.0014663034953049743 -0.0006969261992752857 0 0 0 0
2117121744 0.6568370479908878 -0.6315757437967531 -0.0016114505814435831 -0.000734583126196025 0 0 0 0
2119851273 0.6718924800566634 -0.626155666793742 -0.0016832603415953688 -0.0006434816321942567 0 0 0 0
2122580802 0.643239938650383 -0.6414766648473526 -0.0014513897531499371 -0.0006381673873059828 0 0 0 0
2125310331 0.6309443017325155 -0.6657419897315769 -0.0015433311742714271 -0.0006836594270160094 0 0 0 0
2128039860 0.6380705849885209 -0.6556385020167803 -0.0015855091874284535 -0.0009096524586348492 0 0 0 0
2130769389 0.6314570803486824 -0.6637348226777537 -0.0013719048833751475 -0.0006046893100659223 0 0 0 0
2133498918 0.6255422008316297 -0.6703891842909734 -0.0013415703922166579 -0.0006595455861840543 0 0 0 0
2136228447 0.5783078536719671 -0.7042506384396834 -0.0013652321011457548 -0.0007324942344498974 0 0 0 0
2138957976 0.5974076407397141 -0.7160598089437923 -0.0013259811430532814 -0.0006777574114751692 0 0 0 0
2141687505 0.5918068102950688 -0.7072644145331762 -0.0011761019370944345 -0.0007205648131294983 0 0 0 0
2144417034 0.5718448483024343 -0.7191635320020888 -0.0012508324686250133 -0.0006714010036095025 0 0 0 0
2147146563 0.5574630451378593 -0.735039215917441 -0.0016790105706881407 -0.000818269380665191 0 0 0 0
2149876092 0.5370331394451789 -0.7464320542463588 -0.0014755394495932841 -0.0005482788766676754 0 0 0 0
2152605621 0.5242415826927319 -0.7656470097825517 -0.001308339902088432 -0.0008742054443096854 0 0 0 0
2155335150 0.5489411999728278 -0.7529862417058913 -0.0014875568972287777 -0.0007165726088370162 0 0 0 0
2158064679 0.5235353786505549 -0.761114229991065 -0.0015349341287437324 -0.0008228143733508131 0 0 0 0
2160794208 0.48870611406823544 -0.7927013904694992 -0.0013727292771072886 -0.0007743776541521761 0 0 0 0
2163523737 0.49926568943633876 -0.7780490961187788 -0.0010810457678482894 -0.0006955764172601365 0 0 0 0
2166253266 0.4686338770767454 -0.7855687169430366 -0.0014034658484087053 -0.0009981548291888203 0 0 0 0
2168982795 0.47074950145868444 -0.7896366704139833 -0.0013195728726964125 -0.0007341616463137323 0 0 0 0
2171712324 0.4571678553105393 -0.7973146952069741 -0.0014441621747200894 -0.0007283813136902955 0 0 0 0
2174441853 0.4525881759869855 -0.8087809964339254 -0.001359219949663206 -0.0007497459443840685 0 0 0 0
2177171382 0.4242909749393497 -0.8286325631099325 -0.0013530937334357632 -0.0007599927636526213 0 0 0 0
2179900911 0.4298411431978607 -0.8284244162715175 -0.0011935262597763206 -0.0008205847358464375 0 0 0 0
2182630440 0.3959219815594974 -0.8395193481161848 -0.001554913503799823 -0.0007334578336074178 0 0 0 0
2185359969 0.39802979895360097 -0.8290239297216193 -0.0012123434695321782 -0.0008904257174426876 0 0 0 0
2188089498 0.38915395088362925 -0.8391515778041216 -0.0014392594073094993 -0.0007721062498285511 0 0 0 0
2190819027 0.37796799943816345 -0.8459184474407074 -0.0014079997674463119 -0.0006561057026098074 0 0 0 0
2193548556 0.35143675729405643 -0.8486191823071566 -0.0014326343329297954 -0.0007819977824265568 0 0 0 0
2196278085 0.34471069134509563 -0.8673788381349038 -0.0011998046782214162 -0.0008489052081587405 0 0 0 0
2199007614 0.3142849626791404 -0.8664191579669888 -0.0010602842028150968 -0.0009044211911152266 0 0 0 0
2201737143 0.3116139088861826 -0.8742358950223701 -0.0013026350267902938 -0.0008581096740295706 0 0 0 0
2204466672 0.31555072868249834 -0.8729295063408229 -0.0014970624884072627 -0.00096593566904392 0 0 0 0
2207196201 0.2935253224490125 -0.8773907893461075 -0.0012718329388523067 -0.0008776198397507633 0 0 0 0
2209925730 0.28120065579051035 -0.8883387577086994 -0.0011150676342814414 -0.0009926608282784092 0 0 0 0
2212655259 0.25967953642120845 -0.8802435740603265 -0.0013016604210447664 -0.0008702740502194155 0 0 0 0
2215384788 0.27882757285949056 -0.8870936120631822 -0.001567500116430505 -0.0011137148987863791 0 0 0 0
2218114317 0.24882417180416128 -0.8994507682820725 -0.0013922099239001096 -0.0011654529437453785 0 0 0 0
2220843846 0.21496346092127688 -0.8948555520438155 -0.0014046605701356157 -0.0011519362227921052 0 0 0 0
2223573375 0.2123781337746055 -0.9008201054646611 -0.0015704631779180796 -0.0010912842675499094 0 0 0 0
2226302904 0.19211149835621733 -0.9004090802409545 -0.0016748081355016523 -0.0011407704329675782 0 0 0 0
2229032433 0.1880630454524016 -0.9096899796030907 -0.0013781264298281647 -0.0010445194919291667 0 0 0 0
2231761962 0.1684128857161669 -0.904172314141193 -0.0016595688281471257 -0.0011516140986304717 0 0 0 0
2234491491 0.16803939920148891 -0.9055593646083547 -0.0015481978293248096 -0.001074795578143052 0 0 0 0
2237221020 0.15616783349471208 -0.9127082528614697 -0.0016756789406314997 -0.0010506980321415068 0 0 0 0
2239950549 0.16397005455298633 -0.9052498092480153 -0.0015928780414574979 -0.0011660524425298109 0 0 0 0
2242680078 0.10494568488784209 -0.9118439775673188 -0.0019328118953632015 -0.0011724112232287976 0 0 0 0
2245409607 0.127110517202965 -0.914977547137877 -0.0017236432686528987 -0.001322274685948448 0 0 0 0
2248139136 0.13298287774679712 -0.9246221369502368 -0.0017828403411397733 -0.0013119770304953263 0 0 0 0
2250868665 0.09547061223758814 -0.9157373642431845 -0.0017878515050401278 -0.0012445522039911743 0 0 0 0
2253598194 0.07453696400858349 -0.9335388127195409 -0.0019870873073937396 -0.001256345307735611 0 0 0 0
2256327723 0.08255870485323304 -0.9144965498001119 -0.0018770372741554872 -0.0011580533480343219 0 0 0 0
2259057252 0.0705450606037085 -0.938010847489676 -0.002016466064558051 -0.0012767651879454303 0 0 0 0
2261786781 0.022734687682997343 -0.9309451712951097 -0.0021193540842221873 -0.0010302260837730553 0 0 0 0
2264516310 0.016446363214957398 -0.9177420902618738 -0.002045720414167054 -0.0009556799992749437 0 0 0 0
2267245839 0.004249271652698906 -0.9331117444564667 -0.002142859596992476 -0.000975994261043793 0 0 0 0
2269975368 0.00747209278020891 -0.9300319830098713 -0.0020582195463675437 -0.0011305396435281766 0 0 0 0
2272704897 -0.0005022899039393209 -0.933189173776112 -0.0020444753126399166 -0.000960367869609906 0 0 0 0
2275434426 -0.037167084402245074 -0.9376043475344894 -0.0022441954878469426 -0.0009779237856383856 0 0 0 0
2278163955 -0.04623285324497001 -0.9223018002240801 -0.0023162759210241766 -0.0009462360516636561 0 0 0 0
2280893484 -0.06419987533032148 -0.9194579336219967 -0.0022191806463703542 -0.0008757579561428656 0 0 0 0
2283623013 -0.04262943531282659 -0.9462191407737313 -0.0022600791580176492 -0.0008284186908687952 0 0 0 0
2286352542 -0.08863771917910918 -0.931097502964604 -0.002272658547083701 -0.0007538445511319074 0 0 0 0
2289082071 -0.08536636257255585 -0.9228808377717148 -0.0023065332461888813 -0.0006539538099550404 0 0 0 0
2291811600 -0.09796462890285378 -0.9249591736201583 -0.0023387772898867966 -0.0006137910735815776 0 0 0 0
2294541129 -0.10056830731967072 -0.9026650656701833 -0.0023408681940194943 -0.0006093375796142543 0 0 0 0
2297270658 -0.09469624107461468 -0.9239436362157493 -0.002240093211726343 -0.0005462880483985099 0 0 0 0
2300000187 -0.14391481262156383 -0.931729155791388 -0.0022830030724339733 -0.000577970382292507 0 0 0 0
