# HZ S RI R 50
1000000000 -0.054315659765324056 0.00823610597274251 -0.625359142955273 -0.7722712314764777 0 0 0 0
1003722084 -0.053577737458279956 0.010555615776015726 -0.6497258174750667 -0.7538835326754475 0 0 0 0
1007444168 -0.052715902285572276 0.012413584357172902 -0.6466718691867303 -0.7554603511343052 0 0 0 0
1011166252 -0.053267505232023525 0.013585448653542234 -0.6535380442947535 -0.7511022231879791 0 0 0 0
1014888336 -0.05171164639994769 0.017311427902894513 -0.6629564978055713 -0.7437642297718118 0 0 0 0
1018610420 -0.05067129174578145 0.02018347918226452 -0.658003006134365 -0.7472909644062957 0 0 0 0
1022332504 -0.049752761586463266 0.022943763737432933 -0.6681149137484755 -0.7398103171336686 0 0 0 0
1026054588 -0.04869704246239507 0.02599457426924164 -0.6838499432087297 -0.724008218579514 0 0 0 0
1029776672 -0.04780249527376553 0.026749776292262606 -0.6831541508541846 -0.7244859652326048 0 0 0 0
1033498756 -0.04618577517721207 0.028921385268025703 -0.6908657332092998 -0.716821280503679 0 0 0 0
1037220840 -0.04524522403325564 0.030380531344199917 -0.698220060988736 -0.7081122895908646 0 0 0 0
1040942924 -0.04345063182312326 0.034599683286002506 -0.7026958573513555 -0.7039777410487588 0 0 0 0
1044665008 -0.041534282040621366 0.034160661803618195 -0.7035165222205971 -0.7021230255447773 0 0 0 0
1048387092 -0.03979805450149831 0.03508193721884834 -0.7101176630972381 -0.6970242379009738 0 0 0 0
1052109176 -0.03843437428851212 0.039566622262530105 -0.7144621251757597 -0.6917484803651872 0 0 0 0
1055831260 -0.03675317739381567 0.04105588079812996 -0.7233546160121911 -0.6805045668311829 0 0 0 0
1059553344 -0.034109410003262494 0.04254136601358343 -0.728910537804859 -0.675229303684428 0 0 0 0
1063275428 -0.03219336409907572 0.04409973723227924 -0.7400299747995597 -0.6594425239921307 0 0 0 0
1066997512 -0.03027949202383343 0.04533710019710184 -0.7361666887213465 -0.6649306807969388 0 0 0 0
1070719596 -0.027663719578413633 0.04623447994285823 -0.7447027165964172 -0.6554696244602135 0 0 0 0
1074441680 -0.026652691837112476 0.050231320127991044 -0.7511498335416072 -0.6519084082525816 0 0 0 0
1078163764 -0.022959699522308807 0.049074637937533166 -0.7567811310753745 -0.6448984693874932 0 0 0 0
1081885848 -0.020948393583753028 0.049618172008386384 -0.7609818002464139 -0.6362868517272392 0 0 0 0
1085607932 -0.01847987574331457 0.050243604217998464 -0.7683457415711812 -0.6308172395337551 0 0 0 0
1089330016 -0.015905087186222352 0.05243806424247787 -0.7777077300155646 -0.6148005058860397 0 0 0 0
1093052100 -0.012512332032099642 0.05138325240977379 -0.7766697924495995 -0.6190546366027897 0 0 0 0
1096774184 -0.010128982094131612 0.05243368987233075 -0.7848491732461328 -0.6051058918852751 0 0 0 0
1100496268 -0.008194872081056568 0.0537242620362458 -0.7807735714519023 -0.6163146273828948 0 0 0 0
1104218352 -0.004595176701629382 0.054651034552542596 -0.7961604947418505 -0.5927971467898815 0 0 0 0
1107940436 -0.003923629552324516 0.05547505509078549 -0.805033429994349 -0.5817997399492132 0 0 0 0
1111662520 0.00047586260322273545 0.05377888503861502 -0.8020225106215683 -0.5863550848091327 0 0 0 0
1115384604 0.000987449985280314 0.0561252467231998 -0.8087693180450064 -0.5768297361706485 0 0 0 0
1119106688 0.003095514527641452 0.05644771329793545 -0.8069019443041358 -0.5662647208258186 0 0 0 0
1122828772 0.004459821264129797 0.05631824777315901 -0.8161129789364229 -0.5611435498836362 0 0 0 0
1126550856 0.008134571216926643 0.0553781555057052 -0.8232774815777787 -0.5533135277978052 0 0 0 0
1130272940 0.012901100885365793 0.054225579340058463 -0.821178989513574 -0.5531190798651316 0 0 0 0
1133995024 0.015728061714845466 0.054409499024472216 -0.8298212202042529 -0.5358530297878157 0 0 0 0
1137717108 0.017692141462045157 0.053810554715050606 -0.833700155220233 -0.5401401467632897 0 0 0 0
1141439192 0.01772232335845881 0.05323969218321792 -0.8407351614539144 -0.5261824000784762 0 0 0 0
1145161276 0.022723055282871534 0.05211570494995528 -0.842060543248578 -0.5282433150758743 0 0 0 0
1148883360 0.024326403793759076 0.05087480236966963 -0.8516787477792834 -0.5072465863104709 0 0 0 0
1152605444 0.02859385086873238 0.05077071897520813 -0.853001152916641 -0.5076803835605045 0 0 0 0
1156327528 0.02711753403090135 0.04973592718574655 -0.8583921966232827 -0.4977514315605421 0 0 0 0
1160049612 0.02989973996957648 0.048143293785212746 -0.8591238263396296 -0.49745391778311154 0 0 0 0
1163771696 0.03162696018643945 0.04741993851188392 -0.8699210665714273 -0.47537309526962973 0 0 0 0
1167493780 0.03575507092278825 0.04609903609272797 -0.8668700790186772 -0.47827489956471037 0 0 0 0
1171215864 0.03864786366619868 0.04487799698052296 -0.8750573660952824 -0.4620138770650526 0 0 0 0
1174937948 0.04019692699751743 0.04344257254126648 -0.8711742350953713 -0.46343994477314854 0 0 0 0
1178660032 0.042778204448276604 0.04277811442647993 -0.8736551468827092 -0.4612521356325287 0 0 0 0
1182382116 0.041917043651948066 0.03993221349550455 -0.8816676266266265 -0.4508968016148057 0 0 0 0
1186104200 0.04263178406858761 0.038479417565543586 -0.8801964768216838 -0.45940623637744055 0 0 0 0
1189826284 0.047099317164791696 0.037583187525814896 -0.8870730482665707 -0.43959750864085795 0 0 0 0
1193548368 0.04690654454690997 0.03377801288008758 -0.8976346847082384 -0.4341621896909015 0 0 0 0
1197270452 0.04803404683367262 0.033241304913221435 -0.8949773110949156 -0.4217875778494133 0 0 0 0
1200992536 0.05002470103404091 0.03168241652743101 -0.8996706906342564 -0.41935215569915363 0 0 0 0
1204714620 0.05132277890068451 0.02987715875375479 -0.9069130628416288 -0.39883200108678873 0 0 0 0
1208436704 0.05355017478124813 0.02888349794362719 -0.9094504327636566 -0.39666439807335174 0 0 0 0
1212158788 0.05194149499982975 0.02483432825275665 -0.912583969212036 -0.38736517035928697 0 0 0 0
1215880872 0.05398434946040114 0.023551243985613184 -0.9143468597087813 -0.3820949421649058 0 0 0 0
1219602956 0.05416504245941865 0.019823608044336576 -0.9226612497407601 -0.36560746325695254 0 0 0 0
1223325040 0.05454710104454322 0.0171345110868376 -0.925514624343862 -0.3542159148348651 0 0 0 0
1227047124 0.055397495664783664 0.01616473050324935 -0.9293735192333686 -0.3580258598942864 0 0 0 0
1230769208 0.0563903052823007 0.014899836219430486 -0.9284393274545327 -0.3553898306092623 0 0 0 0
1234491292 0.05712965247780485 0.013799404965165936 -0.9315987609646246 -0.34136781918190107 0 0 0 0
1238213376 0.05847976565064128 0.012091780593779047 -0.9284769980192251 -0.3455689785695908 0 0 0 0
1241935460 0.05751475488652972 0.00815327978384129 -0.9342618203783902 -0.3288496930779297 0 0 0 0
1245657544 0.057481954780667574 0.005977516580930938 -0.938037745464226 -0.3095000992001105 0 0 0 0
1249379628 0.057629855298205884 0.0020839957036786643 -0.9431602931224411 -0.29879152384274554 0 0 0 0
1253101712 0.05774069531611169 -0.00034958707988384205 -0.9479342990607401 -0.2866961245818683 0 0 0 0
1256823796 0.05827998865286621 0.000577643415151683 -0.9425379099858907 -0.30457264958170766 0 0 0 0
1260545880 0.05784040262750882 -0.005112347466200241 -0.9499347730318068 -0.28627442949338366 0 0 0 0
1264267964 0.05682539785753125 -0.006121047094419531 -0.9527715428819468 -0.2803489377343533 0 0 0 0
1267990048 0.05671542792863472 -0.006185082446524644 -0.9521536417010216 -0.26631573047883345 0 0 0 0
1271712132 0.05640313518475779 -0.008512186175168603 -0.9566490628996004 -0.2584336477126501 0 0 0 0
1275434216 0.05527028436995953 -0.009633708579025197 -0.959365197305986 -0.253246785309276 0 0 0 0
1279156300 0.05534091388568335 -0.015458382561135312 -0.9595855489489797 -0.24054720866918453 0 0 0 0
1282878384 0.05339398635860493 -0.012163579539073889 -0.9629409445002529 -0.23723543826663177 0 0 0 0
1286600468 0.05338078750957204 -0.018020503927879315 -0.9640883015612167 -0.23035548212188292 0 0 0 0
1290322552 0.05150234469506 -0.015458043447893182 -0.9668282275185454 -0.21307409655312207 0 0 0 0
1294044636 0.051740736441751145 -0.020630246903137816 -0.9642081820767477 -0.21855024527274938 0 0 0 0
1297766720 0.050079718325265685 -0.022274011138661398 -0.9743013033975364 -0.20505993873186912 0 0 0 0
1301488804 0.04791623001503572 -0.023348143713454013 -0.9708784383000427 -0.2020322492098432 0 0 0 0
1305210888 0.04900237135408546 -0.02608941442355375 -0.9694116461549629 -0.19369385009630197 0 0 0 0
1308932972 0.048059813978237616 -0.030221484451234643 -0.9755049864627032 -0.18656350983800973 0 0 0 0
1312655056 0.04574332532239855 -0.03037339298252641 -0.97343458956011 -0.172690797231479 0 0 0 0
1316377140 0.042235496074852406 -0.02895527944524767 -0.9749912000394535 -0.17962345447227987 0 0 0 0
1320099224 0.04209489502744059 -0.032010594567610254 -0.9783928176531529 -0.15861804030217 0 0 0 0
1323821308 0.040674783375908984 -0.034928033087144324 -0.9781958024026648 -0.14346468640070179 0 0 0 0
1327543392 0.041940935721383424 -0.037638430888196996 -0.9813953829442922 -0.13572982516719187 0 0 0 0
1331265476 0.037406916905517326 -0.03727079274130672 -0.9808232381345242 -0.1353974214515909 0 0 0 0
1334987560 0.03519394811331805 -0.03749825885187917 -0.9834763153406472 -0.1326425344519317 0 0 0 0
1338709644 0.0319463231072281 -0.03836911959697711 -0.9849637437774316 -0.10397403851222578 0 0 0 0
1342431728 0.031331670308062144 -0.0397363939708957 -0.983202371168235 -0.11883968776590265 0 0 0 0
1346153812 0.030832065755548494 -0.04155975297473653 -0.9841780164760711 -0.1012983465714614 0 0 0 0
1349875896 0.029632272707862322 -0.040924708712017886 -0.9855290634152101 -0.0938233777774754 0 0 0 0
1353597980 0.024932082421554116 -0.04205737067397276 -0.9912824674448544 -0.09194457435609785 0 0 0 0
1357320064 0.025396685758868262 -0.043495025919468425 -0.9893102411540393 -0.06691385247959933 0 0 0 0
1361042148 0.022372303350957762 -0.04401569211662249 -0.9872613786412434 -0.06867566427666978 0 0 0 0
1364764232 0.019815547319286603 -0.044661768548425414 -0.9882412389214057 -0.06218891199942444 0 0 0 0
1368486316 0.01900259584820325 -0.045200946796207696 -0.9880549650717108 -0.06440493778388463 0 0 0 0
1372208400 0.011083842647116569 -0.04467118307280019 -0.9874686025586947 -0.03413251788952103 0 0 0 0
1375930484 0.014706920894202884 -0.04472565543867806 -0.9890728598127443 -0.0332936082093549 0 0 0 0
1379652568 0.008295681674786361 -0.044968092949158406 -0.9921432861674323 -0.027087697039170737 0 0 0 0
1383374652 0.009784747529609953 -0.04478136734875793 -0.984338557218499 -0.0031983782587134873 0 0 0 0
1387096736 0.00931784854481148 -0.044405232342155654 -0.9908411344822212 0.007521121418993169 0 0 0 0
1390818820 0.00341955867248155 -0.043615231273647914 -0.991060200338462 -0.009165070383442046 0 0 0 0
1394540904 0.002422739483971946 -0.043141720919572885 -0.9900501972840099 -0.004509859562356527 0 0 0 0
1398262988 -0.001365875386894897 -0.043600106453889405 -0.9941568647098085 0.009891816520912448 0 0 0 0
1401985072 -0.0031321118514784155 -0.042591548081066265 -0.9883172788451612 0.01761795752996792 0 0 0 0
1405707156 -0.0036395258919542004 -0.041246469772773874 -0.9884760730278629 0.03590540800516906 0 0 0 0
1409429240 -0.007874794282531588 -0.041149594890651384 -0.9875642234774121 0.03391426822393015 0 0 0 0
1413151324 -0.010815243017934 -0.040952911782642466 -0.988413670569203 0.0437349986426223 0 0 0 0
1416873408 -0.01226076292932027 -0.04001874654451121 -0.9883107365432202 0.05520656085098749 0 0 0 0
1420595492 -0.013496816930607567 -0.03851316600812757 -0.9876830895334449 0.062092543311019814 0 0 0 0
1424317576 -0.01614702953039827 -0.038128203767792954 -0.9887601433810775 0.06523364381074165 0 0 0 0
1428039660 -0.02043456299007726 -0.0385745858991431 -0.9891041852531057 0.06859306994441489 0 0 0 0
1431761744 -0.016872681251974733 -0.033115199085314156 -0.9848383787359132 0.09680174494084073 0 0 0 0
1435483828 -0.022974856801021206 -0.03390581405103403 -0.9866936494435393 0.08176738702946446 0 0 0 0
1439205912 -0.025043316889266615 -0.03361672228781346 -0.9830685542199067 0.11086803409704532 0 0 0 0
1442927996 -0.024565277337406686 -0.02954695282314108 -0.9859246695782903 0.10939695746265526 0 0 0 0
1446650080 -0.028255748087910145 -0.02968995029010445 -0.9835070511738533 0.11267264539483979 0 0 0 0
1450372164 -0.028828563346852434 -0.02802863068388264 -0.9833725238111031 0.12069560081597415 0 0 0 0
1454094248 -0.03067286922585529 -0.025239809285944947 -0.9857826994053538 0.11490091397035625 0 0 0 0
1457816332 -0.03115434925122828 -0.02193188828131134 -0.9754230424223157 0.16213223117304718 0 0 0 0
1461538416 -0.03293388250470348 -0.02017589781151263 -0.9769157668274551 0.17610533663464542 0 0 0 0
1465260500 -0.03244639553613527 -0.014885512217466717 -0.9727551964772354 0.18486595880927137 0 0 0 0
1468982584 -0.03480387418472373 -0.014496570709368547 -0.9747946787491322 0.17516182547406947 0 0 0 0
1472704668 -0.03692066086172744 -0.016102567471874607 -0.9733762799090158 0.16706794149850498 0 0 0 0
1476426752 -0.037533879421583434 -0.010111291672038822 -0.9710870855602854 0.1902503436436669 0 0 0 0
1480148836 -0.038274374548290774 -0.008422752304090097 -0.9718239255275882 0.18997165672470775 0 0 0 0
1483870920 -0.03838727608808332 -0.007683705215645906 -0.9674494982482075 0.2170888207580904 0 0 0 0
1487593004 -0.04011835996097757 -0.0064138980212061995 -0.9674957074763328 0.20554211303058564 0 0 0 0
1491315088 -0.03963593777400834 -0.0011498646346339405 -0.964474216587833 0.24025653984642112 0 0 0 0
1495037172 -0.03993145411139953 0.0014715922582745043 -0.9611498573575971 0.23120745281383207 0 0 0 0
1498759256 -0.0399820606688246 0.0018637813556565733 -0.9581697039105197 0.2367782879821884 0 0 0 0
1502481340 -0.04070656234476811 0.0067622066666346075 -0.9601539140903755 0.23752472322658877 0 0 0 0
1506203424 -0.040524525400209205 0.007637468762193811 -0.9581221859726343 0.25577889461348524 0 0 0 0
1509925508 -0.04002135189606606 0.011339730041686213 -0.9512276195005305 0.27610291666740866 0 0 0 0
1513647592 -0.039044829734957744 0.011830400149885515 -0.9533660559778097 0.27481383849459456 0 0 0 0
1517369676 -0.03941323947112221 0.018267331263792336 -0.9509780185135132 0.2822281247930908 0 0 0 0
1521091760 -0.03790673985260051 0.01817985121284385 -0.949755646498709 0.2805583935844586 0 0 0 0
1524813844 -0.03942431747431429 0.025397205434996763 -0.942113713560581 0.29447652940585406 0 0 0 0
1528535928 -0.035276573288206825 0.02243187230969022 -0.9501790705443935 0.29391446512364916 0 0 0 0
1532258012 -0.03706084460114881 0.028132473350056062 -0.9416470928399019 0.3032778018277459 0 0 0 0
1535980096 -0.03566702221609189 0.03242130538904166 -0.9485057039310967 0.33246953981573013 0 0 0 0
1539702180 -0.032616332382726126 0.03153049905626084 -0.9368122667672985 0.3176020852553099 0 0 0 0
1543424264 -0.03446149864453867 0.0385160251140134 -0.9296248516471393 0.3463774955721234 0 0 0 0
1547146348 -0.027681218032524317 0.0348059664692932 -0.9355785808331136 0.33062052900957056 0 0 0 0
1550868432 -0.030986323890454668 0.04093573315335729 -0.9322200810422115 0.3393972463266961 0 0 0 0
1554590516 -0.028520143348907016 0.04301372124496615 -0.9301130690271333 0.3406823492372213 0 0 0 0
1558312600 -0.025372825068107622 0.04449307828024126 -0.9186102829373979 0.362235652953177 0 0 0 0
1562034684 -0.024034116903410715 0.049189683304048645 -0.9164254927308874 0.3773883887066712 0 0 0 0
1565756768 -0.020081833362773915 0.04920393456429296 -0.9137413050789884 0.3814508804087113 0 0 0 0
1569478852 -0.02074042183528805 0.05286585448902039 -0.9111172891222189 0.38804102410722036 0 0 0 0
1573200936 -0.013751464461495874 0.05173740576109887 -0.9135652865087837 0.3856842764836033 0 0 0 0
1576923020 -0.015292184253516744 0.05752499570264121 -0.9024524439314476 0.4088038554694246 0 0 0 0
1580645104 -0.011621585430966235 0.05811878567303312 -0.9032059251271197 0.4043836796537383 0 0 0 0
1584367188 -0.013226872462904552 0.06016459490142375 -0.9037701064814658 0.4071413885086404 0 0 0 0
1588089272 -0.007426512069106261 0.06230660828970568 -0.8935643474710504 0.43311817060760655 0 0 0 0
1591811356 -0.00900623861696919 0.06505575818729868 -0.8955236216486474 0.42012746167878573 0 0 0 0
1595533440 0.004693709853363856 0.06397693309334837 -0.883087481849959 0.4529314556326299 0 0 0 0
1599255524 0.006122888404731523 0.06470963930132717 -0.891613323307525 0.43641466034269494 0 0 0 0
1602977608 0.00905359752027387 0.06614072662668558 -0.8865622377201731 0.4524199485784613 0 0 0 0
1606699692 0.00976908378691957 0.06725208694685136 -0.8732248294356633 0.4670369718185961 0 0 0 0
1610421776 0.01179195558263992 0.06755817751392765 -0.8679281964798677 0.4829679484698405 0 0 0 0
1614143860 0.015516635528999317 0.06797765225824821 -0.8717024530516402 0.47434626171707533 0 0 0 0
1617865944 0.022102006539895767 0.068418625367405 -0.8723632553910184 0.4809785526000559 0 0 0 0
1621588028 0.025791678905328262 0.06825837355303964 -0.8689302001117021 0.4843823762304037 0 0 0 0
1625310112 0.0302646895972083 0.0682630982512806 -0.8603534623578064 0.4960805527475346 0 0 0 0
1629032196 0.03063422089474746 0.06837497110969606 -0.8609988651457787 0.4990038031446319 0 0 0 0
1632754280 0.037915750092136574 0.06808104030257492 -0.8553250834705001 0.5108371326091488 0 0 0 0
1636476364 0.04332258340681577 0.06860639211411391 -0.8459944788274549 0.5143647771011656 0 0 0 0
1640198448 0.04117419157551977 0.06508521136253133 -0.8451672414685552 0.5216551424444735 0 0 0 0
1643920532 0.04501675390124109 0.06404945791183246 -0.8426397531124676 0.5312502348483928 0 0 0 0
1647642616 0.05219221671374224 0.06492239274310166 -0.8349547421622988 0.5407154748430589 0 0 0 0
1651364700 0.05163434799045233 0.061581454562648734 -0.8331798976892961 0.5425021388339277 0 0 0 0
1655086784 0.05416611115102202 0.05815264124574381 -0.8260049969746335 0.5550728447014804 0 0 0 0
1658808868 0.05946423304603337 0.05678125772603682 -0.8176031913027955 0.5620303173934765 0 0 0 0
1662530952 0.06415208728105544 0.05514992858341893 -0.8180932098231875 0.5709233629369239 0 0 0 0
1666253036 0.06745861371051691 0.054668506522421466 -0.8115022828337899 0.5730902599029405 0 0 0 0
1669975120 0.06992448627980363 0.048824254455577955 -0.8069426867073888 0.5809581171831617 0 0 0 0
1673697204 0.07808505427487009 0.04986853527770667 -0.7883349934406867 0.5995974340521506 0 0 0 0
1677419288 0.08220688359299633 0.048826536427801215 -0.7996468216290377 0.5924903826920028 0 0 0 0
1681141372 0.08033580252573747 0.04093916855938869 -0.7841939045874187 0.6090023948214437 0 0 0 0
1684863456 0.0847100978104029 0.037819381476564023 -0.7916363356341851 0.6051119452333822 0 0 0 0
1688585540 0.08801932072380628 0.03637452622790977 -0.7756289229773946 0.6199746089940987 0 0 0 0
1692307624 0.09377206451065428 0.03657543138755888 -0.7777172082370832 0.6182688399956193 0 0 0 0
1696029708 0.09378998885117258 0.028349216616302995 -0.7660518098547869 0.6314363098134027 0 0 0 0
1699751792 0.09683638376098334 0.025143830901747887 -0.7473715629795173 0.6494965750932586 0 0 0 0
1703473876 0.09929880628068755 0.021031434902978964 -0.7611092484135233 0.6360394191972236 0 0 0 0
1707195960 0.10382833041484599 0.02415522685094215 -0.742619266003331 0.6540461720720204 0 0 0 0
1710918044 0.10303326511201742 0.01186106077291414 -0.7479810012465505 0.6540207246060854 0 0 0 0
1714640128 0.1054301089119305 0.0057958980150472255 -0.7586717697494161 0.6435048182835692 0 0 0 0
1718362212 0.10589736652860743 -0.0016112847474274406 -0.7391730836420339 0.6633169658641853 0 0 0 0
1722084296 0.10810022657297429 -0.0008795406128278297 -0.71864443628858 0.6862504148972555 0 0 0 0
1725806380 0.10934325214936368 -0.005387768748079631 -0.7372396787782984 0.6633211136726727 0 0 0 0
1729528464 0.10978256337903583 -0.012366117840930767 -0.7147470769493347 0.6910877482691492 0 0 0 0
1733250548 0.11119525671550848 -0.014374843203022233 -0.7038628824625538 0.7006881055539713 0 0 0 0
1736972632 0.11128450603691944 -0.018011359339144842 -0.7059584712867618 0.6946392051090317 0 0 0 0
1740694716 0.11213990069691512 -0.02701291550169794 -0.7042349730722396 0.6985440327753296 0 0 0 0
1744416800 0.11240583053511008 -0.031229114988023717 -0.6932408264313225 0.7115682095542659 0 0 0 0
1748138884 0.11042510394977331 -0.031597842668347566 -0.7053698603324621 0.6997298857206936 0 0 0 0
1751860968 0.11203327014367995 -0.04470898778385826 -0.6831121354294354 0.7195401073763502 0 0 0 0
1755583052 0.11005185572537693 -0.05124075367680544 -0.6714895866218118 0.7308178153476023 0 0 0 0
1759305136 0.11268700915425006 -0.060834630384936375 -0.6729350708185172 0.7389067785555103 0 0 0 0
1763027220 0.10648613638878231 -0.057200181493024055 -0.6580159928109481 0.7418963943876279 0 0 0 0
1766749304 0.1067433782215919 -0.06165091536215652 -0.6506901930814127 0.747128895629514 0 0 0 0
1770471388 0.10583099437258023 -0.06966726055297352 -0.6692352122046293 0.740699400124306 0 0 0 0
1774193472 0.10181214436408975 -0.0715852657341883 -0.6486175562631982 0.7531755608069869 0 0 0 0
1777915556 0.1026953143203512 -0.0822295862383074 -0.635753051981577 0.7661621404811948 0 0 0 0
1781637640 0.09626039998045889 -0.08279804657825436 -0.6296338332789332 0.768999743608023 0 0 0 0
1785359724 0.09206198961583933 -0.08762585056563252 -0.6364616543386871 0.7675510415194902 0 0 0 0
1789081808 0.09258685482887268 -0.09936049013898382 -0.6169934620965335 0.7846577604153535 0 0 0 0
1792803892 0.08241973857434295 -0.09549749240330221 -0.6198623338023403 0.781281291194004 0 0 0 0
1796525976 0.081312333565241 -0.1011303202904709 -0.5941917327367423 0.8020342256403554 0 0 0 0
1800248060 0.0721086898755534 -0.10361402411913345 -0.5919914556024045 0.8005217965836472 0 0 0 0
1803970144 0.07546122460276947 -0.11129513426020474 -0.6003844831256816 0.7946219872435494 0 0 0 0
1807692228 0.06912628412953856 -0.11602636529585136 -0.5928187389610823 0.804345688960224 0 0 0 0
1811414312 0.06591655113354197 -0.12209942524125923 -0.5895012638651638 0.8092871896687956 0 0 0 0
1815136396 0.06158275096890373 -0.12685662542155307 -0.5656464340597738 0.8277890037726012 0 0 0 0
1818858480 0.05694682080048996 -0.12854388993319443 -0.5717717357800114 0.8213106134170871 0 0 0 0
1822580564 0.048059546057901824 -0.13036214992007863 -0.5714405281232272 0.818758001779054 0 0 0 0
1826302648 0.05527198239430283 -0.13627500234006784 -0.5630734744203296 0.8269865023989318 0 0 0 0
1830024732 0.040046517266154304 -0.13628536517141338 -0.5545448546629884 0.8329278883023896 0 0 0 0
1833746816 0.03788050362072164 -0.1421911382292876 -0.5328459771956534 0.8470521513857594 0 0 0 0
1837468900 0.02462909929410068 -0.1416259521098869 -0.5275197918634709 0.84750022869726 0 0 0 0
1841190984 0.032483894512434504 -0.14490660869326336 -0.5267217003306296 0.8513384008620754 0 0 0 0
1844913068 0.017371740769768877 -0.14613157999171014 -0.49190616787765057 0.8717610796834094 0 0 0 0
1848635152 0.00646003295879684 -0.14889740007142876 -0.509504160729158 0.8641940421852427 0 0 0 0
1852357236 -0.0009420775243543189 -0.15026694184862327 -0.5034010478011124 0.8642319569059785 0 0 0 0
1856079320 -0.002611197720612716 -0.15184934240956866 -0.4960180160245317 0.8679748134530854 0 0 0 0
1859801404 -0.009696549266915176 -0.15073595171455448 -0.4926683938917189 0.8714120865887288 0 0 0 0
1863523488 -0.018094445898462763 -0.15135330809982903 -0.5016979280969233 0.8687949924829902 0 0 0 0
1867245572 -0.029879649684326104 -0.15209051642288704 -0.47549530243410953 0.8744848329151884 0 0 0 0
1870967656 -0.03494418695496268 -0.1496881903813793 -0.4526228541124078 0.8950410325895407 0 0 0 0
1874689740 -0.04214347216194614 -0.15010037382649838 -0.44073507660004047 0.896445589010954 0 0 0 0
1878411824 -0.05105436158759769 -0.14917777828299478 -0.4463924557464883 0.8911511893318067 0 0 0 0
1882133908 -0.053413352458007296 -0.14552060664107203 -0.4239817429903744 0.905655887812649 0 0 0 0
1885855992 -0.06601153007690934 -0.1449932956845866 -0.4350836180677796 0.8973726120904073 0 0 0 0
1889578076 -0.05895091172475984 -0.14247941319116492 -0.422009836400808 0.9050598277743563 0 0 0 0
1893300160 -0.07688429439512118 -0.13942595732318025 -0.389157269548513 0.9179143722599238 0 0 0 0
1897022244 -0.08223959100944223 -0.13757215555656443 -0.4170626020915671 0.9059715859965191 0 0 0 0
1900744328 -0.08547607095291473 -0.13521073835295638 -0.40800496879310205 0.9106737408826429 0 0 0 0
1904466412 -0.08703513652614106 -0.13025086000662744 -0.3886764798079738 0.9158394370723979 0 0 0 0
1908188496 -0.10025134573303977 -0.12806118797709426 -0.3871953777218712 0.9159332031143073 0 0 0 0
1911910580 -0.10535418555883957 -0.1262404689115504 -0.37690902709056284 0.9256567701831294 0 0 0 0
1915632664 -0.1148865201282774 -0.119417455956094 -0.3480747680085706 0.9292390130881383 0 0 0 0
1919354748 -0.11718587227841386 -0.11604043165338698 -0.36718471509141526 0.927319942732075 0 0 0 0
1923076832 -0.1252954828426527 -0.10967853336778774 -0.3514567561615984 0.9297021114744201 0 0 0 0
1926798916 -0.13018171499332237 -0.10130775909305763 -0.3214490588651631 0.935875763974836 0 0 0 0
1930521000 -0.13719473332888724 -0.10050763886183123 -0.34338253075358044 0.9321114533961714 0 0 0 0
1934243084 -0.13967655659629993 -0.09167044646683804 -0.3310931466251224 0.9319807257368575 0 0 0 0
1937965168 -0.1387861112279141 -0.08130461873613154 -0.3142030543961783 0.9396938297760081 0 0 0 0
1941687252 -0.1507604431836537 -0.08106374662567326 -0.27906656343238745 0.9516717456568092 0 0 0 0
1945409336 -0.15333334177927183 -0.07552096502646362 -0.30954565712229565 0.9377155105911859 0 0 0 0
1949131420 -0.15358342901051933 -0.07130943676695291 -0.28365969913906364 0.9513314949089849 0 0 0 0
1952853504 -0.1554972194889497 -0.06026537907170247 -0.29655223764540545 0.9456242617234306 0 0 0 0
1956575588 -0.15759607713758433 -0.047997806841771025 -0.26940042701128014 0.9549643163505297 0 0 0 0
1960297672 -0.16349228089019888 -0.042486558265905715 -0.2638096978500794 0.9548073768960831 0 0 0 0
1964019756 -0.16551289263597546 -0.035195306698728106 -0.24058445908142592 0.9586902215958846 0 0 0 0
1967741840 -0.16593936474294105 -0.034477926385466484 -0.26936510907279343 0.9492976709775488 0 0 0 0
1971463924 -0.1664973116917267 -0.023751220989877118 -0.24547995450758658 0.955532440161046 0 0 0 0
1975186008 -0.16851693463547965 -0.014630112377321536 -0.23132781663189406 0.9595351828068497 0 0 0 0
1978908092 -0.17052475594882005 0.0005410467333030558 -0.24126572531816898 0.9558371480856307 0 0 0 0
1982630176 -0.16763004697852904 0.004584838850668105 -0.22035547248798096 0.9587117746954111 0 0 0 0
1986352260 -0.16662382474109255 0.01049596157831943 -0.21048422118032284 0.9625742617582185 0 0 0 0
1990074344 -0.16700660831756928 0.020792449667367166 -0.196931682089919 0.9638045547276769 0 0 0 0
1993796428 -0.16352142849469892 0.024043884890352245 -0.19530374230685285 0.9664413541033433 0 0 0 0
1997518512 -0.16659700251756218 0.03258507164859882 -0.18458887852111813 0.9619485991140531 0 0 0 0
2001240596 -0.16036455769521896 0.042513903394192476 -0.18565027287557118 0.9640495970012921 0 0 0 0
2004962680 -0.15926401407345267 0.05094060669374018 -0.17324783732506613 0.9645830660771684 0 0 0 0
2008684764 -0.15449106010701588 0.05529683571239983 -0.17150221826671014 0.9636466855633117 0 0 0 0
2012406848 -0.1550451248513688 0.06221776427679577 -0.16803777293055372 0.9621764201002341 0 0 0 0
2016128932 -0.14921568337761096 0.06819393765579138 -0.15058480874355556 0.9665726847543274 0 0 0 0
2019851016 -0.14496840541428696 0.07955481956830572 -0.14474335612347924 0.9701944837729949 0 0 0 0
2023573100 -0.14399256520946577 0.08542073107749296 -0.13489240081283765 0.9687725946611289 0 0 0 0
2027295184 -0.13572343850885904 0.08919589186641164 -0.14250666396141165 0.9699094626652934 0 0 0 0
2031017268 -0.13851888824551184 0.10148695697723775 -0.09169375183261405 0.9755933098358212 0 0 0 0
2034739352 -0.1274059869864138 0.10447749766424233 -0.112909634847323 0.975111915505153 0 0 0 0
2038461436 -0.11736847164042541 0.11026858837471487 -0.10803818658509139 0.9811330707274619 0 0 0 0
2042183520 -0.11191841676997871 0.11580288837605432 -0.11205752875215973 0.9710870360346684 0 0 0 0
2045905604 -0.11114109085449862 0.1204853295184621 -0.09439395536862379 0.9704645705515274 0 0 0 0
2049627688 -0.10881221380867104 0.12787472163339045 -0.07893431843043262 0.9732584169752229 0 0 0 0
2053349772 -0.09789001143582728 0.1315050555904823 -0.08157960938487174 0.9751724382020569 0 0 0 0
2057071856 -0.08774409918047996 0.13687497858671835 -0.06689501346333963 0.9785967698731582 0 0 0 0
2060793940 -0.08274419925193367 0.1391106576144545 -0.03995153996207001 0.9738439438453947 0 0 0 0
2064516024 -0.07447515440658128 0.14253048533002588 -0.05053339033604397 0.9729922917866127 0 0 0 0
2068238108 -0.06232511525719626 0.14393580077334123 -0.04484833595197557 0.9707128731375928 0 0 0 0
2071960192 -0.054328825792668255 0.1504047502981517 -0.01119262606843837 0.9810739087990352 0 0 0 0
2075682276 -0.05547760299391709 0.15086562454711702 -0.06203134418087073 0.9748179807736408 0 0 0 0
2079404360 -0.04293245424153946 0.15104074195178596 -0.015220262455579968 0.9775750932264554 0 0 0 0
2083126444 -0.031050608887638442 0.1544504739143561 -0.011167144360344473 0.9733168354303877 0 0 0 0
2086848528 -0.02525368915117768 0.15595464097500644 0.007419975322199791 0.9821999979160366 0 0 0 0
2090570612 -0.017893566959988387 0.15846963433106595 -0.007207163736603953 0.9835086714820583 0 0 0 0
2094292696 -0.012391358620547644 0.15451406465464546 0.026337593209219946 0.9743065165893802 0 0 0 0
2098014780 0.0005540032719830154 0.1569686627270405 0.0029565915454255014 0.9775148284412928 0 0 0 0
2101736864 0.006750652906986271 0.15908281527056503 0.023340174547935584 0.9816967282589975 0 0 0 0
2105458948 0.008489404248236106 0.15156410043986096 0.016752747696515483 0.9794921404400367 0 0 0 0
2109181032 0.02439567901259625 0.1480595189519517 0.05801106576474881 0.9764873871556883 0 0 0 0
2112903116 0.028646057153250404 0.15108480012342818 0.04672633209289403 0.9769024978859102 0 0 0 0
2116625200 0.04535075672308859 0.14866288490215135 0.05338752270446266 0.9761929464915953 0 0 0 0
2120347284 0.057085681511544244 0.1459902005004725 0.06345859752426775 0.9750850916075733 0 0 0 0
2124069368 0.06158406114377479 0.1442220972130039 0.05796677773418614 0.9812669664750532 0 0 0 0
2127791452 0.06977669864184086 0.13880806362549647 0.0959989351477117 0.9785741365935254 0 0 0 0
2131513536 0.07803454609485154 0.13015943202242178 0.10640787707183817 0.9784137808027131 0 0 0 0
2135235620 0.07887896969597642 0.12931867025382518 0.10395646892112828 0.9756956327885118 0 0 0 0
2138957704 0.09022296128501843 0.1222515066919297 0.09995862096171679 0.977988750645231 0 0 0 0
2142679788 0.09989412768222654 0.12181602021791565 0.12149183753946614 0.9717568187629022 0 0 0 0
2146401872 0.10527969148593681 0.113869910346223 0.11058827638548156 0.9751473515285064 0 0 0 0
2150123956 0.11280631886550455 0.10810506981281849 0.1448862274318926 0.9757013359004705 0 0 0 0
2153846040 0.120981488092394 0.10366928388122804 0.13131682651224774 0.9766252933432379 0 0 0 0
2157568124 0.1228282167637052 0.09642353239166877 0.14455592641881193 0.9695304170245781 0 0 0 0
2161290208 0.12830588309709604 0.08165070147033011 0.1659523162021907 0.9723959821169376 0 0 0 0
2165012292 0.13394267015830202 0.07935589782203449 0.15112840219629814 0.9744489007096622 0 0 0 0
2168734376 0.13925966491636987 0.07417821346075452 0.17202858252894246 0.967543444229456 0 0 0 0
2172456460 0.14395279908228437 0.060667259516278764 0.18358095358347704 0.962959384841677 0 0 0 0
2176178544 0.14551351264467907 0.051491632131232916 0.1885541304463192 0.9674437499380768 0 0 0 0
2179900628 0.15013252244983938 0.04854960104770246 0.2011763737548382 0.966060309420867 0 0 0 0
2183622712 0.15168414911800382 0.03719681881550123 0.1980021946170449 0.9633721641156106 0 0 0 0
2187344796 0.1576973775826452 0.023652996717758126 0.19297457942157487 0.9665102451635953 0 0 0 0
2191066880 0.1582752078059033 0.019828833800729907 0.1959728882340895 0.9639771272535593 0 0 0 0
2194788964 0.16075237125712288 0.006581780379166308 0.24668141725088802 0.9556908734198579 0 0 0 0
2198511048 0.16272639991358662 0.001878834568971731 0.23592934950577732 0.9507842781957364 0 0 0 0
2202233132 0.16020741587705728 -0.01146568889298078 0.2559230099708109 0.9495993613314334 0 0 0 0
2205955216 0.15955030034373732 -0.017066013720585034 0.2637468249796254 0.9466519996682222 0 0 0 0
2209677300 0.15973603211612292 -0.036531701960318026 0.265767224826813 0.95037473241204 0 0 0 0
2213399384 0.15974105980176595 -0.03881612002951099 0.2759327250934895 0.9472697925907891 0 0 0 0
2217121468 0.15447147089416124 -0.0461656361401358 0.2641821384603452 0.9533851365663952 0 0 0 0
2220843552 0.15215150880293485 -0.06063880639643078 0.28754204961767765 0.9409645872653523 0 0 0 0
2224565636 0.15135019258640828 -0.07056167591919812 0.30496982871582434 0.938726313579008 0 0 0 0
2228287720 0.14731135127620523 -0.07165042337393296 0.2900908746906513 0.9411789637641917 0 0 0 0
2232009804 0.14646600578259444 -0.09255464500758462 0.30833198609137086 0.9310749879249652 0 0 0 0
2235731888 0.13644925700631233 -0.08880071066285282 0.3348266457085966 0.9247517872779124 0 0 0 0
2239453972 0.13098763240001396 -0.09993164846690589 0.30434701650539353 0.9312320134734086 0 0 0 0
2243176056 0.12939601566241793 -0.10726684736538658 0.30872515101381076 0.9326935183330323 0 0 0 0
2246898140 0.12250032519765967 -0.11543235551420192 0.34590833558308176 0.9247883161504463 0 0 0 0
2250620224 0.1157734087872848 -0.12880548604527728 0.31562484524278367 0.9432244813702637 0 0 0 0
2254342308 0.11437271259296786 -0.134265201322284 0.37057519882741985 0.9214428838804056 0 0 0 0
2258064392 0.09796216487071434 -0.13802000405055495 0.3432260920408749 0.9270953344717524 0 0 0 0
2261786476 0.10225813309757331 -0.14578020369475955 0.37675209503263907 0.9127315354911447 0 0 0 0
2265508560 0.09480154430091053 -0.15523922709368793 0.3793128996742885 0.9135160664773694 0 0 0 0
2269230644 0.07837111666060961 -0.15702159768114698 0.37161655310514313 0.9200460612560698 0 0 0 0
2272952728 0.07301224392440082 -0.16387556326126215 0.3831936124914298 0.9234728681914703 0 0 0 0
2276674812 0.06542382423401832 -0.16994842473506355 0.4072621291646718 0.9137341473662152 0 0 0 0
2280396896 0.05597083150760776 -0.17143509486564837 0.41330933405295367 0.910139884787104 0 0 0 0
2284118980 0.04281049227872028 -0.17594368566849566 0.41243286703801685 0.9014622893591749 0 0 0 0
2287841064 0.032485223993951644 -0.1785596377809587 0.4399083244722445 0.8899680301805484 0 0 0 0
2291563148 0.020031015554030484 -0.17724079168011955 0.43719265247343675 0.8954765160456931 0 0 0 0
2295285232 0.017610952231191048 -0.18413406130290808 0.44278813253840604 0.8908410543443975 0 0 0 0
2299007316 -0.001806773916647359 -0.1820089750389409 0.4526136429957098 0.8850616229935371 0 0 0 0
2302729400 -0.011581835146566659 -0.18184985926973019 0.4612465863395043 0.8903834253611917 0 0 0 0
2306451484 -0.023294276950874944 -0.1887214065724643 0.4767894490235491 0.8804012987848662 0 0 0 0
2310173568 -0.02583797612387168 -0.18445214413926514 0.4829691506674479 0.8730414482779502 0 0 0 0
2313895652 -0.04052532688971948 -0.1861647506617591 0.4689839860896527 0.8871534532296924 0 0 0 0
2317617736 -0.05315887917416317 -0.18377661419612654 0.4885216509200776 0.8663158693038286 0 0 0 0
2321339820 -0.05951864616147039 -0.18439266907137547 0.5000999713768605 0.862265566651282 0 0 0 0
2325061904 -0.07321180488668337 -0.1825305393067884 0.5110505389752388 0.8657870510014429 0 0 0 0
2328783988 -0.08171670209383003 -0.1794117675822309 0.5166299335200065 0.8597013936153579 0 0 0 0
2332506072 -0.08599973148242365 -0.1758587159653481 0.5194112425791321 0.8592197720109903 0 0 0 0
2336228156 -0.1059383878982046 -0.1754984631339558 0.4967552952298659 0.8698590668594367 0 0 0 0
2339950240 -0.11747671649379114 -0.16668957657221686 0.5482709607916794 0.8474162915881888 0 0 0 0
2343672324 -0.11751747854612721 -0.16112987935946974 0.5316721841286923 0.8546098849377304 0 0 0 0
2347394408 -0.13516840882429143 -0.15486560008443043 0.5342692795219921 0.8524718048389185 0 0 0 0
2351116492 -0.13796925291554624 -0.14761057318691603 0.5486258776934578 0.8297176650313725 0 0 0 0
2354838576 -0.1545907339407596 -0.13798811862236252 0.562112493580073 0.8256460341199079 0 0 0 0
2358560660 -0.15413399998250574 -0.12858190948274015 0.5694997777456842 0.8256269543231094 0 0 0 0
2362282744 -0.17748614897122098 -0.12465846352610724 0.5933100456254882 0.8063069255113993 0 0 0 0
2366004828 -0.17564492673096566 -0.11182051034358946 0.5984752456412034 0.804195885208569 0 0 0 0
2369726912 -0.1796837606876906 -0.10670114688094227 0.5856765210327836 0.8130433583007027 0 0 0 0
2373448996 -0.18758923055723317 -0.09871665671473664 0.6051395339700854 0.805873555120402 0 0 0 0
2377171080 -0.1914150109130063 -0.0913863074883562 0.6095929327876884 0.797185384373826 0 0 0 0
2380893164 -0.19833083935561313 -0.07832553661624658 0.6080968795365238 0.7996438052410255 0 0 0 0
2384615248 -0.20404583157279418 -0.06685687703122482 0.6298944957033529 0.7854101358775955 0 0 0 0
2388337332 -0.20820218939988114 -0.05629718516566791 0.6407552620949067 0.7728136565039518 0 0 0 0
2392059416 -0.21763591799031318 -0.05144131639419002 0.6476705714710538 0.764891256276381 0 0 0 0
2395781500 -0.2224394204513901 -0.03320529865790335 0.6700336832816061 0.7498850309386047 0 0 0 0
2399503584 -0.2161053522575083 -0.026940554623903996 0.6358173744621374 0.769450999502874 0 0 0 0
2403225668 -0.21935207238435195 -0.011273129700663664 0.6542049778883089 0.7555392629777231 0 0 0 0
2406947752 -0.22422277008247937 -0.003843371367347117 0.6652201351335808 0.743776692718489 0 0 0 0
2410669836 -0.2225492705680365 0.0217508241052544 0.6710284534970468 0.7387387188116696 0 0 0 0
2414391920 -0.22368114922132537 0.0193577817347008 0.6606093717196989 0.749768985844201 0 0 0 0
2418114004 -0.23033768698994983 0.03672131692588664 0.6930233770111326 0.7224888555084142 0 0 0 0
2421836088 -0.22574487589056605 0.048209702904574 0.6774658323842202 0.7284665972370905 0 0 0 0
2425558172 -0.22285620632217729 0.06292182252725963 0.6884736987049052 0.7146504797333982 0 0 0 0
2429280256 -0.22221753755087836 0.07686145753734268 0.7098354740549444 0.7041593593645846 0 0 0 0
2433002340 -0.2193456802581006 0.08570602382370461 0.7132202304763918 0.6899275299508294 0 0 0 0
2436724424 -0.2163743826420879 0.09983116265017195 0.7173984192594076 0.6894049555045823 0 0 0 0
2440446508 -0.21094552094359686 0.10372426988723867 0.7219564522631516 0.6783130264648738 0 0 0 0
2444168592 -0.2109904221228383 0.12213178024011712 0.7471838632595575 0.645029270327059 0 0 0 0
2447890676 -0.20254210076731022 0.14266852164955 0.7288626062595632 0.6702082206766886 0 0 0 0
2451612760 -0.1994215993369793 0.13319453945912355 0.74862749099882 0.645689020571701 0 0 0 0
2455334844 -0.1869531011956947 0.1432346474751604 0.7300481516445568 0.6704596462364869 0 0 0 0
2459056928 -0.18485275835201653 0.15962517321126524 0.7494462790899968 0.6485998037088231 0 0 0 0
2462779012 -0.1823198690929893 0.16626006436656596 0.7505538904865059 0.6499494847473969 0 0 0 0
2466501096 -0.17376670339777897 0.183525106818507 0.7654359330809988 0.6278413688307635 0 0 0 0
2470223180 -0.16010584901637848 0.1911809316291999 0.7655054927829592 0.6230672676042762 0 0 0 0
2473945264 -0.15433346632204625 0.20635493194848764 0.7836153668922979 0.5988608245915125 0 0 0 0
2477667348 -0.1445434951326803 0.2052728686783927 0.7941241811335058 0.5793855609453756 0 0 0 0
2481389432 -0.13626617284043244 0.21682972208939388 0.7686217750526568 0.6140395782393676 0 0 0 0
2485111516 -0.12065996212028296 0.2258620523718872 0.7862838128295383 0.5768754229230153 0 0 0 0
2488833600 -0.11814779603491755 0.23060938384254862 0.7838750657647883 0.6061644333625908 0 0 0 0
2492555684 -0.10341994863064588 0.2351718290972566 0.7805958534035502 0.6004284250504303 0 0 0 0
2496277768 -0.09659572159414397 0.24433271026272432 0.7916662570730036 0.5746849762459953 0 0 0 0
2499999852 -0.08488761912504415 0.24087861569231472 0.7908782451604313 0.5691244574831738 0 0 0 0
