# HZ S RI R 50
1000000000 0.06050642793589964 -0.031738332884270776 0.709004661929922 -0.6952244143359683 0 0 0 0
1003722084 0.06065057081258704 -0.032607317518719106 0.7036320459002513 -0.7047878889126885 0 0 0 0
1007444168 0.05939706079642515 -0.03510630683498817 0.7043083426411262 -0.6993602462020406 0 0 0 0
1011166252 0.057816943530857826 -0.03854106162617979 0.7035716142839288 -0.7022009469567421 0 0 0 0
1014888336 0.05779925802933602 -0.038702700996498675 0.700415192875217 -0.7063874330145357 0 0 0 0
1018610420 0.05707796055380574 -0.040688285108548675 0.7064216577918925 -0.7007051332711779 0 0 0 0
1022332504 0.05598077361737766 -0.041666781620332875 0.6953767029806966 -0.7103195298262869 0 0 0 0
1026054588 0.054921232440120316 -0.04323352454357224 0.6901321560866102 -0.7170962629139296 0 0 0 0
1029776672 0.0542744810523052 -0.04503134969818679 0.6973706297684515 -0.7101053654848162 0 0 0 0
1033498756 0.05295983637240459 -0.04733000617099882 0.6963856308613035 -0.7146439317305288 0 0 0 0
1037220840 0.05210728315882566 -0.04880433896008702 0.6898887888189498 -0.7161561722086731 0 0 0 0
1040942924 0.051107554091711534 -0.047803221392285336 0.6947286768409259 -0.713503347102801 0 0 0 0
1044665008 0.04948576980775148 -0.05259404444977681 0.6894540753938246 -0.7171242744703329 0 0 0 0
1048387092 0.04820199057256974 -0.05400806256650249 0.6883605008029273 -0.7198473740737333 0 0 0 0
1052109176 0.046527670107807506 -0.05326090563860855 0.6861811053566561 -0.7225057795335051 0 0 0 0
1055831260 0.04547888953572647 -0.055385197235661765 0.6843388534260747 -0.7228455791385644 0 0 0 0
1059553344 0.04366746713904141 -0.055664679039230856 0.6762646834488115 -0.7300329047910198 0 0 0 0
1063275428 0.04240520756549226 -0.057336616210855694 0.6713966923937552 -0.7342011232509746 0 0 0 0
1066997512 0.04068545460179129 -0.0592299400060517 0.6748145812747336 -0.7320383530961758 0 0 0 0
1070719596 0.04044412089829669 -0.061945288530721114 0.6829831105280948 -0.7278709775615996 0 0 0 0
1074441680 0.03604515281960949 -0.05925757551108188 0.6679188455943984 -0.739854177760084 0 0 0 0
1078163764 0.036589712502018604 -0.06310330240360665 0.6698014361681923 -0.7398021607023659 0 0 0 0
1081885848 0.03475757175761853 -0.0634481174283764 0.6592694138512474 -0.7475379694424992 0 0 0 0
1085607932 0.03340500008009169 -0.06461009168017835 0.660784840621761 -0.7476490586881024 0 0 0 0
1089330016 0.030894694408485263 -0.06484229718944214 0.6495373682672978 -0.752202823444496 0 0 0 0
1093052100 0.029633976942177773 -0.06550524198618408 0.6547433071320474 -0.7516293545455888 0 0 0 0
1096774184 0.028791833638563837 -0.06782792704450329 0.6496949486792561 -0.7571944600145278 0 0 0 0
1100496268 0.025832780623275254 -0.0667455401087008 0.6638777410061498 -0.7467052104812404 0 0 0 0
1104218352 0.023564447088771586 -0.0669665779240138 0.6493473237490269 -0.7494728666620767 0 0 0 0
1107940436 0.022878492948626015 -0.06798389260182137 0.6367608348279838 -0.7646729605960815 0 0 0 0
1111662520 0.020775024222003884 -0.06853643145130874 0.6490372532089502 -0.754197617871675 0 0 0 0
1115384604 0.019499191335598944 -0.06875774914736023 0.646928175324834 -0.7597195424512458 0 0 0 0
1119106688 0.017055861150056698 -0.06824356431618535 0.6299983928828347 -0.7694809390247436 0 0 0 0
1122828772 0.015547588465527179 -0.06866828340552862 0.642898718737207 -0.7550174374214087 0 0 0 0
1126550856 0.014296183447325863 -0.06905329172713899 0.6352766596051906 -0.7662964079330441 0 0 0 0
1130272940 0.01283539382667487 -0.06927451010095467 0.629926618547164 -0.7708160983050744 0 0 0 0
1133995024 0.009280295163207707 -0.06852885481088593 0.6226584036956857 -0.7708561395908156 0 0 0 0
1137717108 0.007833973634148512 -0.06881578055989995 0.6308013708554303 -0.7746177289210825 0 0 0 0
1141439192 0.004681439335422105 -0.06913288106410403 0.6172285913314938 -0.7806459595357031 0 0 0 0
1145161276 0.003718264616220253 -0.06874849977652225 0.6229275624865966 -0.7740307195652124 0 0 0 0
1148883360 0.0032347998500857314 -0.06860295750878216 0.6181715364338749 -0.7792677429089536 0 0 0 0
1152605444 0.0038583147743064482 -0.06822960635154515 0.6231946341763894 -0.7789434643486022 0 0 0 0
1156327528 -0.0002659887396046884 -0.06749077700759566 0.6236639736459682 -0.777234951742929 0 0 0 0
1160049612 -0.00025207200318534565 -0.06671856432829724 0.6187190701365792 -0.7814517316277098 0 0 0 0
1163771696 -0.0034797126893097345 -0.0667256480057819 0.6075614059274822 -0.7848205201853306 0 0 0 0
1167493780 -0.0049178122058702155 -0.06568207987328582 0.6140385964835102 -0.7834063946511937 0 0 0 0
1171215864 -0.007515782357934349 -0.06480675875280627 0.6031747858797845 -0.7922883886101408 0 0 0 0
1174937948 -0.0078106819311499496 -0.06391119265576929 0.6029273347259468 -0.7873129589834353 0 0 0 0
1178660032 -0.009259049386793996 -0.06305764736240035 0.5941643557925738 -0.7939656476584726 0 0 0 0
1182382116 -0.014284019557314558 -0.0625192114451984 0.594710258311763 -0.7941766310418842 0 0 0 0
1186104200 -0.013957840686357262 -0.06342973076917957 0.6099162518711195 -0.7853895107418646 0 0 0 0
1189826284 -0.013040597987475384 -0.059687601145460095 0.5983749852787064 -0.7913638421374815 0 0 0 0
1193548368 -0.017542949609494617 -0.06091145306850296 0.5907995444326568 -0.8009581632520221 0 0 0 0
1197270452 -0.018741213744693067 -0.06019905136880635 0.5871504744677001 -0.7986973861156359 0 0 0 0
1200992536 -0.0190819684196661 -0.058290906977876394 0.59129199903411 -0.795914999594606 0 0 0 0
1204714620 -0.018477207312503706 -0.057105933471702106 0.5876451679110916 -0.7997155354706946 0 0 0 0
1208436704 -0.021251029066070695 -0.05432564014485595 0.5796884172846702 -0.8057054617716817 0 0 0 0
1212158788 -0.026170368382657152 -0.056454344376964595 0.573705554220019 -0.8111798271964447 0 0 0 0
1215880872 -0.025438409773279998 -0.055380130650432395 0.5819298146462804 -0.8021662492267257 0 0 0 0
1219602956 -0.025231204321293492 -0.05480217848832604 0.5787632760853714 -0.8063728827862667 0 0 0 0
1223325040 -0.028078984539120774 -0.051490976948851394 0.5683864034684721 -0.8152367039358647 0 0 0 0
1227047124 -0.029651612036469516 -0.05112342078744088 0.5689723855456769 -0.8118692537347223 0 0 0 0
1230769208 -0.03102906564968305 -0.04951797831974217 0.5744306247921294 -0.8124227265913034 0 0 0 0
1234491292 -0.03147978602578817 -0.04858025702705584 0.5730552485776437 -0.8103970415125145 0 0 0 0
1238213376 -0.031659421393492516 -0.04705368798001495 0.5661119049272314 -0.8179504000172055 0 0 0 0
1241935460 -0.0339088176339805 -0.04509073876267012 0.5620032520396213 -0.8187558546169329 0 0 0 0
1245657544 -0.03388788661597174 -0.04261694752809188 0.5588327315880186 -0.8177748780932202 0 0 0 0
1249379628 -0.03468234611005699 -0.04386366564865525 0.5635750057101814 -0.8172088630380285 0 0 0 0
1253101712 -0.036355300762363776 -0.04152245418211664 0.5494458317174955 -0.8253267605665993 0 0 0 0
1256823796 -0.03706768445160467 -0.039037035758946854 0.5571383292313984 -0.81997980188295 0 0 0 0
1260545880 -0.03695607440449422 -0.039375249692558414 0.5491329611921707 -0.8229676240843651 0 0 0 0
1264267964 -0.037787104936503085 -0.0347586427987221 0.568476462570027 -0.8157088445361211 0 0 0 0
1267990048 -0.03804218784154421 -0.03468188211620894 0.544020621769811 -0.8311257484460596 0 0 0 0
1271712132 -0.038986638601402245 -0.032679551868138146 0.5452365506583345 -0.8280550550007576 0 0 0 0
1275434216 -0.03913231575304774 -0.03074370600194578 0.5448225873774185 -0.8256702046314093 0 0 0 0
1279156300 -0.038775691412844364 -0.03286292536127106 0.5429439528184075 -0.8267827944917263 0 0 0 0
1282878384 -0.04236618046378597 -0.023232729920810366 0.5429306795574129 -0.8325388247368367 0 0 0 0
1286600468 -0.04175224816307035 -0.026535060511425835 0.5265471179546104 -0.8419992469047212 0 0 0 0
1290322552 -0.04210959930936839 -0.02153766152234686 0.5287384612874167 -0.832493705081001 0 0 0 0
1294044636 -0.042278087529196276 -0.02108873299771123 0.5319008094229543 -0.8354827831366367 0 0 0 0
1297766720 -0.041423883239254326 -0.02185390077785996 0.5240142655161295 -0.8416116973265085 0 0 0 0
1301488804 -0.04276638405352315 -0.016728591478426393 0.5338374647698187 -0.8389183082911219 0 0 0 0
1305210888 -0.042580373601692346 -0.016544321997896863 0.5284927191866433 -0.8406568257483145 0 0 0 0
1308932972 -0.04057994027134914 -0.018416535556652014 0.526555083341377 -0.8410583930553901 0 0 0 0
1312655056 -0.04151108424278177 -0.015277103384311553 0.5237361759825095 -0.8399248886623331 0 0 0 0
1316377140 -0.044270909031161355 -0.009540641646106062 0.5207046774101038 -0.8424451822858148 0 0 0 0
1320099224 -0.04249258130002375 -0.010794413667067801 0.5109479044890264 -0.8521647784264778 0 0 0 0
1323821308 -0.040972184668846716 -0.010414376704188138 0.5071572708872554 -0.8518291499477103 0 0 0 0
1327543392 -0.04220919820608523 -0.007128823051374451 0.5139661194679613 -0.8483443595649979 0 0 0 0
1331265476 -0.042560522427456844 -0.0048775575529237634 0.5140499217710982 -0.8400813895281002 0 0 0 0
1334987560 -0.04035428208907895 -0.005167350320042174 0.5139160443952185 -0.8497529157118713 0 0 0 0
1338709644 -0.04090445250442908 -0.0022901432557920426 0.4990301969285332 -0.8563031930009913 0 0 0 0
1342431728 -0.03927072566937888 -0.001158586732833851 0.520153435258396 -0.8465100511534753 0 0 0 0
1346153812 -0.03831328541340654 -0.0006353915910722823 0.5003312072454654 -0.8552779342309483 0 0 0 0
1349875896 -0.03989123333607399 0.002709175650875454 0.48574292176227424 -0.8652024399316691 0 0 0 0
1353597980 -0.0391903730717554 0.004221515047587556 0.49538923882034636 -0.869290371926441 0 0 0 0
1357320064 -0.03473881200787895 0.004509856401769025 0.4758487024873832 -0.8731114715673542 0 0 0 0
1361042148 -0.03628771448605214 0.006667085554208737 0.48273622983207903 -0.86545433241235 0 0 0 0
1364764232 -0.038085854073968146 0.008851206074463028 0.4831732660657576 -0.8674423281544918 0 0 0 0
1368486316 -0.033546418105175106 0.008702782381984447 0.48790403156128387 -0.8670122820384678 0 0 0 0
1372208400 -0.03605798930632726 0.011512723417496986 0.4628994553509558 -0.8757217355834863 0 0 0 0
1375930484 -0.030418019561829154 0.01235652546275233 0.47828481295492625 -0.8706785003804847 0 0 0 0
1379652568 -0.03405749733486105 0.014339134810213868 0.4822435092557971 -0.8679676464860391 0 0 0 0
1383374652 -0.03569654615364331 0.015258382914243111 0.447575408315968 -0.8808993933464394 0 0 0 0
1387096736 -0.030378556643368027 0.017304512813775357 0.45719299876844083 -0.8781930913262116 0 0 0 0
1390818820 -0.031119930855409973 0.018479648630124367 0.46097849045014094 -0.8776135607593122 0 0 0 0
1394540904 -0.02745501460207841 0.020251878744741127 0.46150496129595786 -0.8763756112146114 0 0 0 0
1398262988 -0.027706445014817234 0.021084070505612777 0.4669998710383727 -0.8781050669346295 0 0 0 0
1401985072 -0.024891942369814214 0.02234057858179375 0.45775291705801147 -0.8760826670698472 0 0 0 0
1405707156 -0.025139362830609472 0.0224721075416285 0.4343050624004423 -0.8932029741290854 0 0 0 0
1409429240 -0.021829351448386238 0.0257110568891681 0.45144361543256273 -0.8817688105374945 0 0 0 0
1413151324 -0.02054998165887127 0.026333157900334064 0.45014315237155333 -0.8798511051701755 0 0 0 0
1416873408 -0.02164059629895183 0.025805676654385726 0.4448978060856173 -0.8844351782471852 0 0 0 0
1420595492 -0.02174538321973726 0.026250959782472057 0.44534812505555504 -0.8824089989601307 0 0 0 0
1424317576 -0.01808576457367382 0.027567409920291105 0.45120125409174827 -0.885506771957144 0 0 0 0
1428039660 -0.0163191841647341 0.028807045026904943 0.4352845225063379 -0.8911587935996745 0 0 0 0
1431761744 -0.01306553452525371 0.03139601625148918 0.4298088080532752 -0.8861720314918957 0 0 0 0
1435483828 -0.011175809674691924 0.032348521045036924 0.4464072505153399 -0.885619879236837 0 0 0 0
1439205912 -0.012707494430807712 0.029778915282330964 0.423460802634155 -0.8929745300247339 0 0 0 0
1442927996 -0.007559698641830653 0.03441017055022625 0.4375749697372796 -0.8876394778258706 0 0 0 0
1446650080 -0.00718073435931818 0.03425207035292757 0.4341039064383668 -0.8920690223512897 0 0 0 0
1450372164 -0.006896878910606279 0.032640338310726984 0.42675238963060397 -0.8933408067701525 0 0 0 0
1454094248 -0.0024555315140766514 0.036488282341631054 0.43180897143705743 -0.8933048009894177 0 0 0 0
1457816332 -0.0015761331841939352 0.03551105991975032 0.41566353025116226 -0.8960418470276906 0 0 0 0
1461538416 0.0001468620312518902 0.03575129617427246 0.4085214094498702 -0.8985046262076621 0 0 0 0
1465260500 0.0027284839416595093 0.03754570305269761 0.394908043829792 -0.9035775332183784 0 0 0 0
1468982584 0.003664180746711018 0.034930864108738316 0.4132220208781854 -0.8990119721004304 0 0 0 0
1472704668 0.005876953177096228 0.03561280990229236 0.40972934301050673 -0.8983403816170317 0 0 0 0
1476426752 0.00711390875155151 0.03480577254420467 0.41194194631164055 -0.8986804009075515 0 0 0 0
1480148836 0.01018922784903842 0.03803419756834382 0.40054174669318976 -0.9054903853203005 0 0 0 0
1483870920 0.01110260245307917 0.035958213439897024 0.40717475374827905 -0.9018167497906405 0 0 0 0
1487593004 0.013188845614059523 0.03328776390231345 0.40147611604723993 -0.9000489196074501 0 0 0 0
1491315088 0.01637521355580111 0.03272643935064219 0.38973976405520244 -0.9119737381103846 0 0 0 0
1495037172 0.018553567820557275 0.03341158855790419 0.38766191549060636 -0.9059154983066382 0 0 0 0
1498759256 0.020289894562310878 0.03418552401074129 0.3883448052359403 -0.9052759150825971 0 0 0 0
1502481340 0.02220404202814011 0.036203352852168656 0.3891763535635718 -0.9075442566210626 0 0 0 0
1506203424 0.023546561597162195 0.034515598709170106 0.3992312144566529 -0.9066026670205497 0 0 0 0
1509925508 0.027593766214515376 0.031369709896602496 0.37482909963156164 -0.9122548366857066 0 0 0 0
1513647592 0.029281678037800428 0.03398981491092196 0.36712058792323377 -0.922601552944404 0 0 0 0
1517369676 0.031878566175006055 0.03199735997146628 0.3689976003897355 -0.9195924620238605 0 0 0 0
1521091760 0.03326327266587569 0.03185455914427674 0.3706408692602736 -0.918329804916742 0 0 0 0
1524813844 0.034451741769890534 0.030923397811752712 0.37199496560714085 -0.9128754370024565 0 0 0 0
1528535928 0.03811263995155921 0.02731320081881952 0.37725840109480874 -0.9141191244620266 0 0 0 0
1532258012 0.038518878198480044 0.029001010945483956 0.382006393886424 -0.9153788079489308 0 0 0 0
1535980096 0.03934996272463554 0.02935796657432615 0.36233419906889924 -0.9250725836842955 0 0 0 0
1539702180 0.04482049674002432 0.023011198351709575 0.37204249966765734 -0.9196872919555619 0 0 0 0
1543424264 0.043755079422476174 0.02617962332509605 0.3656079193903931 -0.9234047528670706 0 0 0 0
1547146348 0.0483434631499315 0.022447140493751003 0.37001262510928534 -0.9215637719135232 0 0 0 0
1550868432 0.0478889178090795 0.02259250218699619 0.3655580876441047 -0.9241908715127263 0 0 0 0
1554590516 0.04909648680832754 0.02035949801177656 0.36210610913940094 -0.9240962454728064 0 0 0 0
1558312600 0.05273623065595739 0.01842894135674458 0.34983012358653703 -0.926767998090029 0 0 0 0
1562034684 0.05545762291098479 0.0160540241890042 0.35963973819186346 -0.9246033791342291 0 0 0 0
1565756768 0.059190263418746496 0.013375285047938668 0.3443566252144826 -0.9324570798182902 0 0 0 0
1569478852 0.058226918405039386 0.01247464831102425 0.34829510785715045 -0.9302851109445797 0 0 0 0
1573200936 0.05889818129909563 0.01212814742633385 0.34246650769556913 -0.933204174662497 0 0 0 0
1576923020 0.05914932794345505 0.010389739059068108 0.3536693420407764 -0.9296698870461637 0 0 0 0
1580645104 0.0629134286953967 0.007727760788317514 0.3414089247415277 -0.9279063558300716 0 0 0 0
1584367188 0.05997529258011484 0.005367537756384408 0.34507978536817413 -0.9326903974691982 0 0 0 0
1588089272 0.061581491080557584 0.005283805609146379 0.3202405477459129 -0.9402444811660611 0 0 0 0
1591811356 0.0656503026995204 0.001580621711745286 0.32842004204316116 -0.9357336610154313 0 0 0 0
1595533440 0.07008023489439225 -0.0022064850507769844 0.32174235167169213 -0.9448652709412647 0 0 0 0
1599255524 0.07075720314261802 -0.0045649100474519175 0.33043128515792447 -0.9404413204983177 0 0 0 0
1602977608 0.07190588919143416 -0.006695080910496377 0.322724019993755 -0.9464945501625123 0 0 0 0
1606699692 0.06866086694591264 -0.009102303733999883 0.3182670030540736 -0.9428680031777865 0 0 0 0
1610421776 0.0690903180346439 -0.011947550488872862 0.3072445481090978 -0.9479820818612325 0 0 0 0
1614143860 0.07390128752687547 -0.013896588239384519 0.33333703754015015 -0.9369190491898234 0 0 0 0
1617865944 0.07456785258763095 -0.017491871782429034 0.3095717239499675 -0.9440889684062906 0 0 0 0
1621588028 0.07336385456291206 -0.01978290373461506 0.30568106115941285 -0.9471220467295093 0 0 0 0
1625310112 0.07277137157518632 -0.02388594865532013 0.3169560871393015 -0.9415844285281446 0 0 0 0
1629032196 0.07609059007416769 -0.025101495039233108 0.29985458777823404 -0.9514719207512953 0 0 0 0
1632754280 0.07890159439035581 -0.028015850942688082 0.3184912250330269 -0.9474826025241939 0 0 0 0
1636476364 0.0772250506102155 -0.03128994617975396 0.2976681869331902 -0.9493902324985957 0 0 0 0
1640198448 0.07388651747830759 -0.03593276753616192 0.30312916843726967 -0.9462939490335838 0 0 0 0
1643920532 0.0750537518762301 -0.03874599782888254 0.30139268906151373 -0.9480520728859358 0 0 0 0
1647642616 0.07757560904256178 -0.03996190288339346 0.2899914548126439 -0.9546629698381315 0 0 0 0
1651364700 0.07170642611259939 -0.046165708106755195 0.2869644043753787 -0.9530167946125662 0 0 0 0
1655086784 0.07214369728097282 -0.04949224078803168 0.2847448766896844 -0.9531166720067521 0 0 0 0
1658808868 0.07129779408724361 -0.05223758436915208 0.28044217078707606 -0.9574081357471382 0 0 0 0
1662530952 0.06669105957112273 -0.05962903628705462 0.2681326074285854 -0.9588793357068488 0 0 0 0
1666253036 0.07229621591089784 -0.05635757642933744 0.28047954963527855 -0.9531442963638602 0 0 0 0
1669975120 0.06665732622932644 -0.06529010253092035 0.28649442191877433 -0.9545851596199416 0 0 0 0
1673697204 0.07360478291621686 -0.05976144151366603 0.27406887298816734 -0.9519893071957086 0 0 0 0
1677419288 0.06886133803506486 -0.06683513788516873 0.28571532349334333 -0.95561712852839 0 0 0 0
1681141372 0.06833707660248332 -0.0685395373192833 0.24908538244422956 -0.9603449887809695 0 0 0 0
1684863456 0.06517889322119418 -0.0748662766827563 0.26779460732787874 -0.9637876480790317 0 0 0 0
1688585540 0.06150638431052875 -0.08085212948673128 0.2504069908581643 -0.9621104548485718 0 0 0 0
1692307624 0.06305991102048485 -0.0779200573909453 0.2569709539383779 -0.9605168664387409 0 0 0 0
1696029708 0.05870624383040388 -0.08737171675512378 0.24793881811119728 -0.961993657533865 0 0 0 0
1699751792 0.05929230015721521 -0.0855018186111824 0.25032591542708893 -0.9600540003805983 0 0 0 0
1703473876 0.05561524825590167 -0.08716617734010543 0.2509482757386791 -0.9592502118805835 0 0 0 0
1707195960 0.05437718097283129 -0.08749615424531058 0.24197582280698032 -0.9619039892708707 0 0 0 0
1710918044 0.05149033366443452 -0.09185585772536173 0.23864476944485363 -0.9649177277946143 0 0 0 0
1714640128 0.04830717298308092 -0.10231260743919034 0.2454963959919336 -0.9611997724992377 0 0 0 0
1718362212 0.04511874745295098 -0.10317656833362183 0.23845493227209205 -0.9642596172501169 0 0 0 0
1722084296 0.04333072284219359 -0.10348223208674277 0.24039258644454017 -0.9668636834779925 0 0 0 0
1725806380 0.039077536710146715 -0.1073407942402168 0.23198199350880974 -0.9652677169587387 0 0 0 0
1729528464 0.035309145024032776 -0.10673947822632257 0.2185902872371555 -0.9734596495363971 0 0 0 0
1733250548 0.0355402028170842 -0.10883823380551727 0.2395687702103868 -0.9671536347265363 0 0 0 0
1736972632 0.03146892686870952 -0.10745620190216994 0.23019292605634145 -0.9650091507218893 0 0 0 0
1740694716 0.029475139338967126 -0.11797547268184612 0.22327063115384227 -0.9698663004793885 0 0 0 0
1744416800 0.023207156083320434 -0.11466866532046945 0.21549562347509987 -0.9731828284418794 0 0 0 0
1748138884 0.0176236281916998 -0.11450420076908711 0.21952783541742532 -0.9728444711008626 0 0 0 0
1751860968 0.016067820223807764 -0.12294105132912722 0.2089065535841575 -0.9752647683452339 0 0 0 0
1755583052 0.010718014200079267 -0.1239458108452135 0.19814449366407152 -0.972986930730589 0 0 0 0
1759305136 0.01393890429268739 -0.13642479717874015 0.21030825074759477 -0.9848165620404401 0 0 0 0
1763027220 0.003902290618470307 -0.12512703170000058 0.18360458906935537 -0.9737501702560892 0 0 0 0
1766749304 -0.00048064262277126586 -0.12194857284499962 0.20653856805145665 -0.9724365675612643 0 0 0 0
1770471388 -0.007567453782116581 -0.12487838136465404 0.19429243678195002 -0.985337294320016 0 0 0 0
1774193472 -0.005594047021174271 -0.1305539273736448 0.18254374113768612 -0.9811059859069738 0 0 0 0
1777915556 -0.010121713912201262 -0.13118624640170798 0.17785733764793937 -0.9813763700194841 0 0 0 0
1781637640 -0.015409487642530494 -0.13065939960491246 0.18840341549083375 -0.9813227328161942 0 0 0 0
1785359724 -0.023648491557163205 -0.12808136753676175 0.19651358616789427 -0.9817202612599817 0 0 0 0
1789081808 -0.02001478705405997 -0.13745212420962022 0.17858337165936 -0.9857553414413067 0 0 0 0
1792803892 -0.02711777603465416 -0.1331212573120004 0.1665411061301926 -0.9888587117198322 0 0 0 0
1796525976 -0.03872311192658565 -0.12728009339883398 0.174889147521774 -0.9874836676743508 0 0 0 0
1800248060 -0.046411765752044816 -0.12466013998318488 0.15217489724716582 -0.985228519756228 0 0 0 0
1803970144 -0.0490591980514042 -0.12573788803001368 0.18260998177338347 -0.9826725751577703 0 0 0 0
1807692228 -0.050642464052316864 -0.12691559782784992 0.1618331216918808 -0.9862489945205428 0 0 0 0
1811414312 -0.05789200155055135 -0.1260174136458922 0.17208616544851751 -0.989395674311891 0 0 0 0
1815136396 -0.0650899900635493 -0.1238248801433901 0.15390542039054725 -0.9935579370946968 0 0 0 0
1818858480 -0.061618662310461925 -0.12591954296473584 0.1552927168989672 -0.9893371314356321 0 0 0 0
1822580564 -0.07553013765739644 -0.12083004866446216 0.17560219007621974 -0.9852376668717222 0 0 0 0
1826302648 -0.06340359642133798 -0.12782888984602434 0.16662972719665592 -0.9904413460123506 0 0 0 0
1830024732 -0.07499633001605721 -0.11957495948849321 0.14957735777257253 -0.9904051140702667 0 0 0 0
1833746816 -0.0774510447338173 -0.12208538564159666 0.13010405194790162 -0.9932658779424536 0 0 0 0
1837468900 -0.08595392196884535 -0.11581032854165617 0.14003660915545013 -0.9919093364615647 0 0 0 0
1841190984 -0.08635009013312542 -0.11196328266862646 0.1228212641012696 -0.9924932767405833 0 0 0 0
1844913068 -0.10049813754088341 -0.11046868771926821 0.12073753392164664 -0.9983947468200177 0 0 0 0
1848635152 -0.10595336006438527 -0.1084255434338921 0.11954606710157999 -0.9967667333686803 0 0 0 0
1852357236 -0.1032462290269026 -0.10712453169750846 0.12264771066289754 -0.9949286836706392 0 0 0 0
1856079320 -0.10628225888091752 -0.1044629688545797 0.1369285777055831 -0.9913743829202556 0 0 0 0
1859801404 -0.11096942879915535 -0.10026225111480992 0.12162707807032057 -0.9926744185643123 0 0 0 0
1863523488 -0.1150184982500904 -0.0966404769182803 0.12826578086104387 -0.990615994069049 0 0 0 0
1867245572 -0.12147226176031352 -0.09320608060893755 0.12139705486915976 -0.9879217251742654 0 0 0 0
1870967656 -0.12056750965886655 -0.08763184381741462 0.08745701259009861 -0.9989876422070679 0 0 0 0
1874689740 -0.127740548818626 -0.08693677795145037 0.10742096024194243 -0.9948139823009645 0 0 0 0
1878411824 -0.12811055364552984 -0.08168223766671269 0.10017342728838553 -0.9922399982331668 0 0 0 0
1882133908 -0.13720669320701456 -0.07796312647621131 0.09765361634711393 -0.9959227866455256 0 0 0 0
1885855992 -0.1362466783795858 -0.07218169259632294 0.08752978874144696 -0.9959385901086443 0 0 0 0
1889578076 -0.14270976235939603 -0.0647744005376354 0.07505008216957326 -0.9945389551262159 0 0 0 0
1893300160 -0.1459050638892877 -0.06276795031934786 0.08218068645879528 -0.9936105244307951 0 0 0 0
1897022244 -0.1466126528450554 -0.05782977566236467 0.08827341603271896 -0.9938254186388785 0 0 0 0
1900744328 -0.1516068011663746 -0.05546268554157115 0.07879510468262586 -0.9911788829868843 0 0 0 0
1904466412 -0.15142176994594103 -0.04885021840982874 0.06609896825556705 -0.9917149810297017 0 0 0 0
1908188496 -0.15716849408319122 -0.046070086200411496 0.09752752562496717 -0.9881077465608578 0 0 0 0
1911910580 -0.1534138212771118 -0.04326195794261261 0.07647333275712836 -0.9928172896652768 0 0 0 0
1915632664 -0.15693860627893394 -0.03570675093213161 0.06135039205588726 -0.9904260001436611 0 0 0 0
1919354748 -0.15649229285762434 -0.029856001473963514 0.07306463747441574 -0.9917089868891898 0 0 0 0
1923076832 -0.16017717158123043 -0.020545727097929727 0.06725814126305102 -0.9916315786453895 0 0 0 0
1926798916 -0.161839068079314 -0.015179746647449172 0.050078463094925786 -0.9881804970062223 0 0 0 0
1930521000 -0.1612086639929063 -0.010042405324101547 0.07419860274444574 -0.990577899175576 0 0 0 0
1934243084 -0.1638095312949688 -0.006660505487550463 0.0818039844557002 -0.9810388609460302 0 0 0 0
1937965168 -0.16440794371992806 0.000717409113926742 0.05581409170692381 -0.9907277839870631 0 0 0 0
1941687252 -0.16664012561397648 0.007986210622689246 0.02362589323134049 -0.9884013174138071 0 0 0 0
1945409336 -0.16497757581958652 0.009248406560329197 0.05457203260905981 -0.9859498542461129 0 0 0 0
1949131420 -0.16204757963424732 0.01818994005414426 0.020034347051937292 -0.9901107008514279 0 0 0 0
1952853504 -0.15936315539356763 0.025156486318557332 0.05196184871715394 -0.9876599202606171 0 0 0 0
1956575588 -0.1602957075888253 0.03452017477433663 0.04219995842787254 -0.9874287038994893 0 0 0 0
1960297672 -0.16042926951003353 0.03876421054953268 0.03240302247285172 -0.9881412681584355 0 0 0 0
1964019756 -0.15836683310707989 0.04412120570733152 0.02390656727762089 -0.9838479193911263 0 0 0 0
1967741840 -0.15870406378157634 0.047225193048500695 0.02698778641319176 -0.984924579962392 0 0 0 0
1971463924 -0.1546484018512791 0.05325701839351451 0.042891386627572116 -0.9812922478238542 0 0 0 0
1975186008 -0.15491202779154442 0.05655516565645676 0.03832342126596673 -0.9819494513609069 0 0 0 0
1978908092 -0.1537621905671914 0.0733251498224996 0.04247362653999924 -0.9831873046053823 0 0 0 0
1982630176 -0.15042123497146287 0.07359142564926792 0.02584788713988618 -0.9810715561261962 0 0 0 0
1986352260 -0.14492487742805296 0.07552237081953565 0.03300633106905435 -0.9820152731239356 0 0 0 0
1990074344 -0.14487658268877363 0.08467581991422067 0.007326508752484702 -0.9823434328320721 0 0 0 0
1993796428 -0.14055333062093447 0.08777106238229127 0.015858232140666277 -0.9821903472506786 0 0 0 0
1997518512 -0.14017662809174733 0.09220381177105623 0.007494945220385772 -0.9800543221280411 0 0 0 0
2001240596 -0.13040807989053277 0.09471236013982927 0.028920413869883053 -0.9820583869523094 0 0 0 0
2004962680 -0.1299350832924599 0.10720354918391864 -0.007852729514634815 -0.977696747406758 0 0 0 0
2008684764 -0.1242836494332008 0.10767038256968456 -0.007776461545849265 -0.978426260659395 0 0 0 0
2012406848 -0.1244826600768699 0.11306295773851627 0.021808166109790694 -0.9770691082917305 0 0 0 0
2016128932 -0.11667357922849514 0.11494496629364634 0.010869098500935558 -0.9797447227550831 0 0 0 0
2019851016 -0.11007767280767186 0.12212610571162177 0.0012073312272304453 -0.978868558247462 0 0 0 0
2023573100 -0.10840821257315879 0.12543586527702852 0.011003122529084966 -0.9797054565248503 0 0 0 0
2027295184 -0.10311233394749486 0.12891963492918587 -0.002136452778412595 -0.980263508976915 0 0 0 0
2031017268 -0.10266275977746936 0.13520628703480247 -0.003910646251891043 -0.9795392283763417 0 0 0 0
2034739352 -0.09532945523068496 0.140574817104949 -0.030829760449017345 -0.9794245456305122 0 0 0 0
2038461436 -0.08477127785044208 0.14248161372923587 -0.01513051259131448 -0.9831159652520074 0 0 0 0
2042183520 -0.081844768351371 0.14611531883282766 0.0025955897111368123 -0.9735081968143094 0 0 0 0
2045905604 -0.0793407867455999 0.14889992119691867 -0.013302166850765946 -0.9751923802245601 0 0 0 0
2049627688 -0.07458611431649634 0.15167213470117555 -0.027392278033927426 -0.9753236387729183 0 0 0 0
2053349772 -0.06681844200139515 0.154166710721326 -0.020315109694524925 -0.9769431134583855 0 0 0 0
2057071856 -0.06115504561287287 0.15905995694147976 -0.028349067038701138 -0.9796939323771586 0 0 0 0
2060793940 -0.05021053718002626 0.15849555059394532 -0.03405125640726206 -0.9730969871591959 0 0 0 0
2064516024 -0.04453081354082727 0.15972542748867638 -0.016573212364858238 -0.9742232413860202 0 0 0 0
2068238108 -0.036959327754187705 0.15967345673790412 -0.04247237642999983 -0.9697543961158588 0 0 0 0
2071960192 -0.029070775968045262 0.16551906479121123 -0.037997206291977365 -0.9788244608210938 0 0 0 0
2075682276 -0.031740015526816 0.16505606817269403 -0.00826149606587779 -0.9772658867503496 0 0 0 0
2079404360 -0.019227444127706564 0.16414206880512613 -0.020698613774643045 -0.977094614151663 0 0 0 0
2083126444 -0.013692391215131479 0.16549216251687876 -0.02244847980629998 -0.9724078608586378 0 0 0 0
2086848528 -0.012678358555520446 0.16697519669908462 -0.053565222094170806 -0.9801146090160942 0 0 0 0
2090570612 -0.0020296547088320886 0.1689233582235615 -0.04003364392345082 -0.9844742384102448 0 0 0 0
2094292696 0.001645920937751126 0.16542306851490518 -0.04664980284017733 -0.9753713062076618 0 0 0 0
2098014780 0.011318831450619312 0.16580925629483975 -0.05682025478591797 -0.977555616357518 0 0 0 0
2101736864 0.01416083454929891 0.16927865928910993 -0.051782758445261784 -0.9812143813236898 0 0 0 0
2105458948 0.011595354220602264 0.1617633036787331 -0.025115359540799853 -0.9760279929353465 0 0 0 0
2109181032 0.03456975204886988 0.1623024346747718 -0.05116918227861015 -0.9763882629362044 0 0 0 0
2112903116 0.03721196900471894 0.15857162995042712 -0.0620418556086296 -0.9769431083670594 0 0 0 0
2116625200 0.040552271422704386 0.15557081724021263 -0.06703464292476198 -0.974524966744377 0 0 0 0
2120347284 0.04853738469642205 0.1573699341017532 -0.059456014301660975 -0.9777090309278671 0 0 0 0
2124069368 0.06292484769578541 0.15582274350952133 -0.05248509432220796 -0.9808826561009449 0 0 0 0
2127791452 0.07024757067060092 0.15369406101511437 -0.07113349830524597 -0.9793270239321916 0 0 0 0
2131513536 0.06966821209083376 0.14715196561254892 -0.06238298379135371 -0.9837832285236408 0 0 0 0
2135235620 0.07631431709075026 0.14341095000618317 -0.08606389834307851 -0.9761329408983707 0 0 0 0
2138957704 0.08582525661918605 0.1392903289168515 -0.06517484739136489 -0.9802955639940946 0 0 0 0
2142679788 0.08796493138375754 0.1371895299662134 -0.08010826750483965 -0.9754716176090868 0 0 0 0
2146401872 0.09594396625007812 0.1327723682100851 -0.07381903833333517 -0.9806931487613751 0 0 0 0
2150123956 0.09819120363751915 0.12896979913532802 -0.10630728091111039 -0.9809813972412574 0 0 0 0
2153846040 0.11283235806722182 0.12532824585232957 -0.08566251617979502 -0.9795225729102316 0 0 0 0
2157568124 0.11124930757314452 0.11663780592220478 -0.08837887962488566 -0.9781435754642276 0 0 0 0
2161290208 0.11688719696363371 0.11054234853576646 -0.09599851692917166 -0.9826960422942955 0 0 0 0
2165012292 0.11769453300779828 0.10678174469016011 -0.07602253537066435 -0.9841618385704918 0 0 0 0
2168734376 0.12796637402791516 0.10157015240729635 -0.10565445860233084 -0.980655021467011 0 0 0 0
2172456460 0.12995172603831476 0.09869510013249588 -0.08497310476453698 -0.9786109563394129 0 0 0 0
2176178544 0.13152152340047085 0.08864208747723316 -0.11859623959290505 -0.9755380258491909 0 0 0 0
2179900628 0.1374677433023817 0.08191886653154745 -0.10751193312657235 -0.9811732752638799 0 0 0 0
2183622712 0.13836347276146124 0.07651648934771371 -0.08831461650392584 -0.9803274639792283 0 0 0 0
2187344796 0.14716223160521727 0.06744495762147008 -0.0911783171424592 -0.9847498435010682 0 0 0 0
2191066880 0.1508739161659385 0.06349617737615351 -0.08845731410012836 -0.9814505579453892 0 0 0 0
2194788964 0.14958232216380904 0.05968371427568368 -0.10570095900550629 -0.9830637349035071 0 0 0 0
2198511048 0.1558634651203834 0.05032253456829492 -0.12947231434678833 -0.9762755035698638 0 0 0 0
2202233132 0.15863548506129466 0.0392730900526153 -0.144748687718036 -0.9764096405155127 0 0 0 0
2205955216 0.15613834708700036 0.03963396865352973 -0.13880119258044754 -0.9776527174627571 0 0 0 0
2209677300 0.1558146894502446 0.026290515572829402 -0.12015239846075311 -0.9792822435680828 0 0 0 0
2213399384 0.1636887910890007 0.01795303196655866 -0.14894439146091587 -0.9759083015080051 0 0 0 0
2217121468 0.1622541066566746 0.010439378528714226 -0.12283623482307192 -0.9855095114688602 0 0 0 0
2220843552 0.15819069015177945 0.00040739509093335564 -0.1265815881342593 -0.9772396382471106 0 0 0 0
2224565636 0.16081847074751854 -0.006391993232080578 -0.14614017334028284 -0.9784144632966517 0 0 0 0
2228287720 0.16207853594558094 -0.01180475841435583 -0.13606003017361665 -0.9759479236310769 0 0 0 0
2232009804 0.16066946521896064 -0.025493452826789453 -0.1279508119036387 -0.9749023041952591 0 0 0 0
2235731888 0.15824544575876265 -0.02694435542490051 -0.15946633250868705 -0.9774584000637614 0 0 0 0
2239453972 0.15499737949000944 -0.03663232692336583 -0.16226552326861463 -0.972456497808555 0 0 0 0
2243176056 0.15341248867755608 -0.039328207514468666 -0.1349566838427491 -0.9766994094685488 0 0 0 0
2246898140 0.1515832325719492 -0.04820716844384311 -0.14694493615616058 -0.9820885653289153 0 0 0 0
2250620224 0.1538234598145062 -0.06308355140301881 -0.1319900190399469 -0.9801711287603901 0 0 0 0
2254342308 0.1525602352084495 -0.07079090266025072 -0.19542794607200142 -0.9739624933255203 0 0 0 0
2258064392 0.14434224853450228 -0.07961104277687872 -0.15011445100914922 -0.9780758046105681 0 0 0 0
2261786476 0.1443030466220392 -0.07845893140251312 -0.1706540553526406 -0.9792000753017893 0 0 0 0
2265508560 0.14332925282323575 -0.09348903843197416 -0.16222816608139085 -0.9782950161477657 0 0 0 0
2269230644 0.13587444623001318 -0.09657200910738259 -0.15540272923243076 -0.982965158225562 0 0 0 0
2272952728 0.1303393394635471 -0.10588922294072922 -0.17104454005966035 -0.9871808188217915 0 0 0 0
2276674812 0.12678152270456336 -0.11217226802195455 -0.14804391686854498 -0.9901787903297414 0 0 0 0
2280396896 0.12329653325496066 -0.11763398852461056 -0.17466816755630643 -0.9851742389557155 0 0 0 0
2284118980 0.11114029287618374 -0.12249498616986884 -0.18053532367456462 -0.9768333982405462 0 0 0 0
2287841064 0.1067420256280798 -0.13213422560776042 -0.2014380267862079 -0.9752903501101596 0 0 0 0
2291563148 0.09965723194400442 -0.13359030508158828 -0.1997913153127397 -0.9781809209016598 0 0 0 0
2295285232 0.09647081322320673 -0.13929822396555205 -0.1743960263302482 -0.9839835117831713 0 0 0 0
2299007316 0.08570476481504716 -0.1467383382275002 -0.17674978815000786 -0.9849777975037373 0 0 0 0
2302729400 0.0831099059776206 -0.1521609723370207 -0.2166952962503251 -0.9811262430707007 0 0 0 0
2306451484 0.07527774684487999 -0.1647118804894677 -0.18682551012239468 -0.9828384449772235 0 0 0 0
2310173568 0.07210022573295984 -0.16423255609476373 -0.21532201386588262 -0.9767027844136256 0 0 0 0
2313895652 0.06977548023352191 -0.16941775181632976 -0.21754011965262288 -0.9827640501243885 0 0 0 0
2317617736 0.05290459403000088 -0.17391582047031276 -0.21600416225871683 -0.9785789700967659 0 0 0 0
2321339820 0.044284218511505644 -0.17510325370644328 -0.24388026399152082 -0.9688375854244845 0 0 0 0
2325061904 0.03951840051142593 -0.18405981744952038 -0.23288801697993827 -0.9822274619648577 0 0 0 0
2328783988 0.03137348834308405 -0.18229733944669993 -0.22559944763261838 -0.9790603792121413 0 0 0 0
2332506072 0.017544367520955704 -0.18596801746514557 -0.22567170481683574 -0.9825591560478536 0 0 0 0
2336228156 0.02194916097778052 -0.18578402942121522 -0.22054790307021604 -0.9783233177201544 0 0 0 0
2339950240 0.0013230074888617696 -0.19442499879125044 -0.25315663289905593 -0.9824486094973278 0 0 0 0
2343672324 0.005211613256460082 -0.18918066012403095 -0.23943965428352448 -0.9757334203483378 0 0 0 0
2347394408 -0.016756244095585435 -0.19785993743315952 -0.21125793768184503 -0.9913565538044351 0 0 0 0
2351116492 -0.02141897501218612 -0.19414385425518324 -0.227540732917344 -0.9776366350677983 0 0 0 0
2354838576 -0.030811816453801086 -0.19023096289467692 -0.26201054309838556 -0.9673996487854185 0 0 0 0
2358560660 -0.03672385179999804 -0.19300266794775417 -0.2488197090077279 -0.9774681682913473 0 0 0 0
2362282744 -0.05260568106476725 -0.197184805076751 -0.2799501411593945 -0.9678356883757117 0 0 0 0
2366004828 -0.05519048618251405 -0.19667958611139208 -0.27097170645368934 -0.9765921961090872 0 0 0 0
2369726912 -0.06661358819379427 -0.1901403415703465 -0.2611237372470343 -0.9775566811049113 0 0 0 0
2373448996 -0.07450504092769007 -0.19159772891698537 -0.29055756686950884 -0.9720209552529068 0 0 0 0
2377171080 -0.09361539140277368 -0.195326238819773 -0.2785857036919849 -0.9783995779896549 0 0 0 0
2380893164 -0.09865063555758877 -0.18934838091208486 -0.26973435710862104 -0.9755285311421001 0 0 0 0
2384615248 -0.10597304461817111 -0.19453184388140907 -0.2653312890134986 -0.9765736429368529 0 0 0 0
2388337332 -0.11674893352102886 -0.18605540790521713 -0.30344469511409183 -0.9686744946759183 0 0 0 0
2392059416 -0.11965651341250286 -0.18255325664353286 -0.29087793938448614 -0.9661142146311554 0 0 0 0
2395781500 -0.13882506359433228 -0.17955886548286099 -0.30284790321826 -0.9704144292852346 0 0 0 0
2399503584 -0.1397571042864192 -0.16680077018349612 -0.3156212520181002 -0.9552088508144794 0 0 0 0
2403225668 -0.1446717941145218 -0.17045677149812513 -0.28534463505386887 -0.9688249635469152 0 0 0 0
2406947752 -0.16280245370536325 -0.16028383951136685 -0.319654799551696 -0.9632114260945535 0 0 0 0
2410669836 -0.159597074698946 -0.15681628281698354 -0.30056987155517345 -0.9617127777759394 0 0 0 0
2414391920 -0.17034036311819709 -0.16330405114958452 -0.2851638055203184 -0.9693741382962404 0 0 0 0
2418114004 -0.18186594421208707 -0.1558145580681858 -0.29920905707725276 -0.9640003565755642 0 0 0 0
2421836088 -0.18515738943356252 -0.14211953659974094 -0.2875467109342154 -0.9618522199174707 0 0 0 0
2425558172 -0.19633271373062303 -0.13675101288511965 -0.31839962603009786 -0.9571505135755561 0 0 0 0
2429280256 -0.20056828289651496 -0.1234245335904315 -0.3262285699566582 -0.9618378379778757 0 0 0 0
2433002340 -0.2047243207345485 -0.12273185707750024 -0.32711565831115796 -0.9522840002349616 0 0 0 0
2436724424 -0.21373976357613594 -0.1207938294577279 -0.3259928772672009 -0.9567049368445391 0 0 0 0
2440446508 -0.22041527947720635 -0.11096302900207809 -0.3306133832714852 -0.9550266020129761 0 0 0 0
2444168592 -0.23024143094686586 -0.09265599894740252 -0.39539485348253894 -0.9165903802251698 0 0 0 0
2447890676 -0.23177411290106636 -0.08150877648235286 -0.3337021992124709 -0.944848641264081 0 0 0 0
2451612760 -0.2318992541579296 -0.1027109946996581 -0.33605060935720904 -0.9414293317341657 0 0 0 0
2455334844 -0.24386229609771898 -0.07578143999270977 -0.36139484682817985 -0.9395803934416327 0 0 0 0
2459056928 -0.24850567263773268 -0.0672426777974229 -0.35625878501227504 -0.9427409506831681 0 0 0 0
2462779012 -0.2544584140163071 -0.055419102639712836 -0.36913403792783867 -0.9288052761216221 0 0 0 0
2466501096 -0.2607941079373568 -0.033482327102218226 -0.3951924991180485 -0.9212216197285223 0 0 0 0
2470223180 -0.2527727840170536 -0.04278730145756111 -0.3591585872257975 -0.9372805111671555 0 0 0 0
2473945264 -0.25891475590521795 -0.031188285922506 -0.37187222013686827 -0.9274378054502043 0 0 0 0
2477667348 -0.25901107349493624 -0.028519600677328033 -0.38576887019745815 -0.9172036523061018 0 0 0 0
2481389432 -0.25991220115584696 -0.01582468132727703 -0.36139671971492127 -0.9268391620270606 0 0 0 0
2485111516 -0.27036222568712776 0.008049788499407235 -0.3848756985702778 -0.9082777146282153 0 0 0 0
2488833600 -0.26358755503091175 0.0042414976272557555 -0.36639890961747584 -0.9280502986841 0 0 0 0
2492555684 -0.2651886711644836 0.014599359758142364 -0.3728575596236635 -0.9221551153072284 0 0 0 0
2496277768 -0.26958757443320885 0.028119339569324518 -0.3605227807534299 -0.9213065259021259 0 0 0 0
2499999852 -0.266117581323138 0.03304289813271685 -0.4075138755778338 -0.8891968976888115 0 0 0 0
