# GHz S RI R 50

1.000000000000000e+00  5.8547511147474740e-01 -8.0947901516864507e-01  3.5896331079891639e-02  2.5962882356073795e-02  3.5896331079891639e-02  2.5962882356073795e-02  5.8547511147474740e-01 -8.0947901516864507e-01
1.001501501501502e+00  5.8300435450745802e-01 -8.1126210676734400e-01  3.5948751155581105e-02  2.5834164184398760e-02  3.5948751155581105e-02  2.5834164184398760e-02  5.8300435450745802e-01 -8.1126210676734400e-01
1.003003003003003e+00  5.8051747073256788e-01 -8.1304537739405924e-01  3.5999796380239382e-02  2.5703990604469207e-02  3.5999796380239382e-02  2.5703990604469207e-02  5.8051747073256788e-01 -8.1304537739405924e-01
1.004504504504505e+00  5.7801433397593427e-01 -8.1482876856966291e-01  3.6049440064703127e-02  2.5572358135785789e-02  3.6049440064703127e-02  2.5572358135785789e-02  5.7801433397593427e-01 -8.1482876856966291e-01
1.006006006006006e+00  5.7549481694360860e-01 -8.1661222060227401e-01  3.6097655152066324e-02  2.5439263483603650e-02  3.6097655152066324e-02  2.5439263483603650e-02  5.7549481694360860e-01 -8.1661222060227401e-01
1.007507507507508e+00  5.7295879121211579e-01 -8.1839567256453671e-01  3.6144414213940670e-02  2.5304703545406856e-02  3.6144414213940670e-02  2.5304703545406856e-02  5.7295879121211579e-01 -8.1839567256453671e-01
1.009009009009009e+00  5.7040612721869899e-01 -8.2017906227045323e-01  3.6189689446722004e-02  2.5168675417545805e-02  3.6189689446722004e-02  2.5168675417545805e-02  5.7040612721869899e-01 -8.2017906227045323e-01
1.010510510510511e+00  5.6783669425151695e-01 -8.2196232625175991e-01  3.6233452667864263e-02  2.5031176402039869e-02  3.6233452667864263e-02  2.5031176402039869e-02  5.6783669425151695e-01 -8.2196232625175991e-01
1.012012012012012e+00  5.6525036043980614e-01 -8.2374539973383964e-01  3.6275675312164059e-02  2.4892204013550100e-02  3.6275675312164059e-02  2.4892204013550100e-02  5.6525036043980614e-01 -8.2374539973383964e-01
1.013513513513514e+00  5.6264699274401042e-01 -8.2552821661116416e-01  3.6316328428058132e-02  2.4751755986525049e-02  3.6316328428058132e-02  2.4751755986525049e-02  5.6264699274401042e-01 -8.2552821661116416e-01
1.015015015015015e+00  5.6002645694587494e-01 -8.2731070942225016e-01  3.6355382673935795e-02  2.4609830282523518e-02  3.6355382673935795e-02  2.4609830282523518e-02  5.6002645694587494e-01 -8.2731070942225016e-01
1.016516516516517e+00  5.5738861763850445e-01 -8.2909280932411955e-01  3.6392808314469602e-02  2.4466425097718139e-02  3.6392808314469602e-02  2.4466425097718139e-02  5.5738861763850445e-01 -8.2909280932411955e-01
1.018018018018018e+00  5.5473333821640325e-01 -8.3087444606625926e-01  3.6428575216966658e-02  2.4321538870583741e-02  3.6428575216966658e-02  2.4321538870583741e-02  5.5473333821640325e-01 -8.3087444606625926e-01
1.019519519519520e+00  5.5206048086547910e-01 -8.3265554796406716e-01  3.6462652847743818e-02  2.4175170289774089e-02  3.6462652847743818e-02  2.4175170289774089e-02  5.5206048086547910e-01 -8.3265554796406716e-01
1.021021021021021e+00  5.4936990655302897e-01 -8.3443604187176634e-01  3.6495010268529429e-02  2.4027318302191646e-02  3.6495010268529429e-02  2.4027318302191646e-02  5.4936990655302897e-01 -8.3443604187176634e-01
1.022522522522523e+00  5.4666147501770279e-01 -8.3621585315479285e-01  3.6525616132895102e-02  2.3877982121253444e-02  3.6525616132895102e-02  2.3877982121253444e-02  5.4666147501770279e-01 -8.3621585315479285e-01
1.024024024024024e+00  5.4393504475945220e-01 -8.3799490566162416e-01  3.6554438682720805e-02  2.3727161235358486e-02  3.6554438682720805e-02  2.3727161235358486e-02  5.4393504475945220e-01 -8.3799490566162416e-01
1.025525525525526e+00  5.4119047302945766e-01 -8.3977312169506080e-01  3.6581445744696760e-02  2.3574855416559504e-02  3.6581445744696760e-02  2.3574855416559504e-02  5.4119047302945766e-01 -8.3977312169506080e-01
1.027027027027027e+00  5.3842761582005616e-01 -8.4155042198292529e-01  3.6606604726865513e-02  2.3421064729444468e-02  3.6606604726865513e-02  2.3421064729444468e-02  5.3842761582005616e-01 -8.4155042198292529e-01
1.028528528528529e+00  5.3564632785464961e-01 -8.4332672564818834e-01  3.6629882615208782e-02  2.3265789540231691e-02  3.6629882615208782e-02  2.3265789540231691e-02  5.3564632785464961e-01 -8.4332672564818834e-01
1.030030030030030e+00  5.3284646257761670e-01 -8.4510195017849099e-01  3.6651245970281784e-02  2.3109030526082708e-02  3.6651245970281784e-02  2.3109030526082708e-02  5.3284646257761670e-01 -8.4510195017849099e-01
1.031531531531532e+00  5.3002787214422353e-01 -8.4687601139507029e-01  3.6670660923900644e-02  2.2950788684638058e-02  3.6670660923900644e-02  2.2950788684638058e-02  5.3002787214422353e-01 -8.4687601139507029e-01
1.033033033033033e+00  5.2719040741053480e-01 -8.4864882342104708e-01  3.6688093175885832e-02  2.2791065343779796e-02  3.6688093175885832e-02  2.2791065343779796e-02  5.2719040741053480e-01 -8.4864882342104708e-01
1.034534534534535e+00  5.2433391792333517e-01 -8.5042029864909829e-01  3.6703507990867204e-02  2.2629862171625673e-02  3.6703507990867204e-02  2.2629862171625673e-02  5.2433391792333517e-01 -8.5042029864909829e-01
1.036036036036036e+00  5.2145825191006645e-01 -8.5219034770847379e-01  3.6716870195154912e-02  2.2467181186760027e-02  3.6716870195154912e-02  2.2467181186760027e-02  5.2145825191006645e-01 -8.5219034770847379e-01
1.037537537537538e+00  5.1856325626877597e-01 -8.5395887943134985e-01  3.6728144173680873e-02  2.2303024768705076e-02  3.6728144173680873e-02  2.2303024768705076e-02  5.1856325626877597e-01 -8.5395887943134985e-01
1.039039039039039e+00  5.1564877655808861e-01 -8.5572580081851291e-01  3.6737293867016407e-02  2.2137395668638534e-02  3.6737293867016407e-02  2.2137395668638534e-02  5.1564877655808861e-01 -8.5572580081851291e-01
1.040540540540541e+00  5.1271465698720808e-01 -8.5749101700435182e-01  3.6744282768470971e-02  2.1970297020361632e-02  3.6744282768470971e-02  2.1970297020361632e-02  5.1271465698720808e-01 -8.5749101700435182e-01
1.042042042042042e+00  5.0976074040594976e-01 -8.5925443122114775e-01  3.6749073921277922e-02  2.1801732351523023e-02  3.6749073921277922e-02  2.1801732351523023e-02  5.0976074040594976e-01 -8.5925443122114775e-01
1.043543543543544e+00  5.0678686829480624e-01 -8.6101594476264787e-01  3.6751629915872552e-02  2.1631705595102642e-02  3.6751629915872552e-02  2.1631705595102642e-02  5.0678686829480624e-01 -8.6101594476264787e-01
1.045045045045045e+00  5.0379288075506501e-01 -8.6277545694689761e-01  3.6751912887269006e-02  2.1460221101161941e-02  3.6751912887269006e-02  2.1460221101161941e-02  5.0379288075506501e-01 -8.6277545694689761e-01
1.046546546546547e+00  5.0077861649896549e-01 -8.6453286507833194e-01  3.6749884512542089e-02  2.1287283648864064e-02  3.6749884512542089e-02  2.1287283648864064e-02  5.0077861649896549e-01 -8.6453286507833194e-01
1.048048048048048e+00  4.9774391283991959e-01 -8.6628806440909734e-01  3.6745506008420359e-02  2.1112898458770287e-02  3.6745506008420359e-02  2.1112898458770287e-02  4.9774391283991959e-01 -8.6628806440909734e-01
1.049549549549550e+00  4.9468860568278999e-01 -8.6804094809959531e-01  3.6738738128997722e-02  2.0937071205417143e-02  3.6738738128997722e-02  2.0937071205417143e-02  4.9468860568278999e-01 -8.6804094809959531e-01
1.051051051051051e+00  4.9161252951424100e-01 -8.6979140717822290e-01  3.6729541163569954e-02  2.0759808030180037e-02  3.6729541163569954e-02  2.0759808030180037e-02  4.9161252951424100e-01 -8.6979140717822290e-01
1.052552552552553e+00  4.8851551739315741e-01 -8.7153933050030297e-01  3.6717874934604572e-02  2.0581115554428056e-02  3.6717874934604572e-02  2.0581115554428056e-02  4.8851551739315741e-01 -8.7153933050030297e-01
1.054054054054054e+00  4.8539740094116041e-01 -8.7328460470618241e-01  3.6703698795850247e-02  2.0401000892975866e-02  3.6703698795850247e-02  2.0401000892975866e-02  4.8539740094116041e-01 -8.7328460470618241e-01
1.055555555555556e+00  4.8225801033319982e-01 -8.7502711417847634e-01  3.6686971630595470e-02  2.0219471667837739e-02  3.6686971630595470e-02  2.0219471667837739e-02  4.8225801033319982e-01 -8.7502711417847634e-01
1.057057057057057e+00  4.7909717428825571e-01 -8.7676674099844654e-01  3.6667651850082909e-02  2.0036536022288935e-02  3.6667651850082909e-02  2.0036536022288935e-02  4.7909717428825571e-01 -8.7676674099844654e-01
1.058558558558559e+00  4.7591472006014296e-01 -8.7850336490149539e-01  3.6645697392089990e-02  1.9852202635240623e-02  3.6645697392089990e-02  1.9852202635240623e-02  4.7591472006014296e-01 -8.7850336490149539e-01
1.060060060060060e+00  4.7271047342843797e-01 -8.8023686323175487e-01  3.6621065719683085e-02  1.9666480735932922e-02  3.6621065719683085e-02  1.9666480735932922e-02  4.7271047342843797e-01 -8.8023686323175487e-01
1.061561561561562e+00  4.6948425868951821e-01 -8.8196711089574287e-01  3.6593713820155208e-02  1.9479380118951860e-02  3.6593713820155208e-02  1.9479380118951860e-02  4.6948425868951821e-01 -8.8196711089574287e-01
1.063063063063063e+00  4.6623589864775311e-01 -8.8369398031508584e-01  3.6563598204157749e-02  1.9290911159576499e-02  3.6563598204157749e-02  1.9290911159576499e-02  4.6623589864775311e-01 -8.8369398031508584e-01
1.064564564564565e+00  4.6296521460683032e-01 -8.8541734137827388e-01  3.6530674905034449e-02  1.9101084829460303e-02  3.6530674905034449e-02  1.9101084829460303e-02  4.6296521460683032e-01 -8.8541734137827388e-01
1.066066066066066e+00  4.5967202636123705e-01 -8.8713706139142712e-01  3.6494899478370209e-02  1.8909912712653798e-02  3.6494899478370209e-02  1.8909912712653798e-02  4.5967202636123705e-01 -8.8713706139142712e-01
1.067567567567568e+00  4.5635615218791126e-01 -8.8885300502806130e-01  3.6456227001763895e-02  1.8717407021972957e-02  3.6456227001763895e-02  1.8717407021972957e-02  4.5635615218791126e-01 -8.8885300502806130e-01
1.069069069069069e+00  4.5301740883806824e-01 -8.9056503427781974e-01  3.6414612074837288e-02  1.8523580615719532e-02  3.6414612074837288e-02  1.8523580615719532e-02  4.5301740883806824e-01 -8.9056503427781974e-01
1.070570570570571e+00  4.4965561152921779e-01 -8.9227300839416912e-01  3.6370008819492136e-02  1.8328447014758598e-02  3.6370008819492136e-02  1.8328447014758598e-02  4.4965561152921779e-01 -8.9227300839416912e-01
1.072072072072072e+00  4.4627057393738151e-01 -8.9397678384100898e-01  3.6322370880426502e-02  1.8132020419958917e-02  3.6322370880426502e-02  1.8132020419958917e-02  4.4627057393738151e-01 -8.9397678384100898e-01
1.073573573573574e+00  4.4286210818952143e-01 -8.9567621423819477e-01  3.6271651425924076e-02  1.7934315730001447e-02  3.6271651425924076e-02  1.7934315730001447e-02  4.4286210818952143e-01 -8.9567621423819477e-01
1.075075075075075e+00  4.3943002485620053e-01 -8.9737115030594483e-01  3.6217803148929167e-02  1.7735348559561881e-02  3.6217803148929167e-02  1.7735348559561881e-02  4.3943002485620053e-01 -8.9737115030594483e-01
1.076576576576576e+00  4.3597413294448162e-01 -8.9906143980810149e-01  3.6160778268420894e-02  1.7535135257872279e-02  3.6160778268420894e-02  1.7535135257872279e-02  4.3597413294448162e-01 -8.9906143980810149e-01
1.078078078078078e+00  4.3249423989107877e-01 -9.0074692749423280e-01  3.6100528531101100e-02  1.7333692927667226e-02  3.6100528531101100e-02  1.7333692927667226e-02  4.3249423989107877e-01 -9.0074692749423280e-01
1.079579579579580e+00  4.2899015155578379e-01 -9.0242745504053878e-01  3.6037005213410106e-02  1.7131039444520116e-02  3.6037005213410106e-02  1.7131039444520116e-02  4.2899015155578379e-01 -9.0242745504053878e-01
1.081081081081081e+00  4.2546167221517411e-01 -9.0410286098954340e-01  3.5970159123886458e-02  1.6927193476574606e-02  3.5970159123886458e-02  1.6927193476574606e-02  4.2546167221517411e-01 -9.0410286098954340e-01
1.082582582582583e+00  4.2190860455662055e-01 -9.0577298068854617e-01  3.5899940605885347e-02  1.6722174504676279e-02  3.5899940605885347e-02  1.6722174504676279e-02  4.2190860455662055e-01 -9.0577298068854617e-01
1.084084084084084e+00  4.1833074967261802e-01 -9.0743764622681378e-01  3.5826299540673200e-02  1.6516002842909973e-02  3.5826299540673200e-02  1.6516002842909973e-02  4.1833074967261802e-01 -9.0743764622681378e-01
1.085585585585586e+00  4.1472790705544826e-01 -9.0909668637145891e-01  3.5749185350914807e-02  1.6308699659547735e-02  3.5749185350914807e-02  1.6308699659547735e-02  4.1472790705544826e-01 -9.0909668637145891e-01
1.087087087087087e+00  4.1109987459219505e-01 -9.1074992650201869e-01  3.5668547004570839e-02  1.6100286998411723e-02  3.5668547004570839e-02  1.6100286998411723e-02  4.1109987459219505e-01 -9.1074992650201869e-01
1.088588588588589e+00  4.0744644856013279e-01 -9.1239718854366603e-01  3.5584333019223952e-02  1.5890787800657464e-02  3.5584333019223952e-02  1.5890787800657464e-02  4.0744644856013279e-01 -9.1239718854366603e-01
1.090090090090090e+00  4.0376742362250811e-01 -9.1403829089905375e-01  3.5496491466852867e-02  1.5680225926981858e-02  3.5496491466852867e-02  1.5680225926981858e-02  4.0376742362250811e-01 -9.1403829089905375e-01
1.091591591591592e+00  4.0006259282472872e-01 -9.1567304837874941e-01  3.5404969979073518e-02  1.5468626180259806e-02  3.5404969979073518e-02  1.5468626180259806e-02  4.0006259282472872e-01 -9.1567304837874941e-01
1.093093093093093e+00  3.9633174759098855e-01 -9.1730127213022450e-01  3.5309715752868107e-02  1.5256014328614783e-02  3.5309715752868107e-02  1.5256014328614783e-02  3.9633174759098855e-01 -9.1730127213022450e-01
1.094594594594595e+00  3.9257467772135030e-01 -9.1892276956539143e-01  3.5210675556823307e-02  1.5042417128926410e-02  3.5210675556823307e-02  1.5042417128926410e-02  3.9257467772135030e-01 -9.1892276956539143e-01
1.096096096096096e+00  3.8879117138929270e-01 -9.2053734428662448e-01  3.5107795737898892e-02  1.4827862350779011e-02  3.5107795737898892e-02  1.4827862350779011e-02  3.8879117138929270e-01 -9.2053734428662448e-01
1.097597597597598e+00  3.8498101513977789e-01 -9.2214479601127020e-01  3.5001022228750449e-02  1.4612378800855474e-02  3.5001022228750449e-02  1.4612378800855474e-02  3.8498101513977789e-01 -9.2214479601127020e-01
1.099099099099099e+00  3.8114399388782694e-01 -9.2374492049457468e-01  3.4890300555628848e-02  1.4395996347778713e-02  3.4890300555628848e-02  1.4395996347778713e-02  3.8114399388782694e-01 -9.2374492049457468e-01
1.100600600600601e+00  3.7727989091765135e-01 -9.2533750945103244e-01  3.4775575846881408e-02  1.4178745947404212e-02  3.4775575846881408e-02  1.4178745947404212e-02  3.7727989091765135e-01 -9.2533750945103244e-01
1.102102102102102e+00  3.7338848788237128e-01 -9.2692235047410232e-01  3.4656792842079898e-02  1.3960659668566648e-02  3.4656792842079898e-02  1.3960659668566648e-02  3.7338848788237128e-01 -9.2692235047410232e-01
1.103603603603604e+00  3.6946956480431958e-01 -9.2849922695425480e-01  3.4533895901801240e-02  1.3741770719282244e-02  3.4533895901801240e-02  1.3741770719282244e-02  3.6946956480431958e-01 -9.2849922695425480e-01
1.105105105105105e+00  3.6552290007599525e-01 -9.3006791799532962e-01  3.4406829018088739e-02  1.3522113473409645e-02  3.4406829018088739e-02  1.3522113473409645e-02  3.6552290007599525e-01 -9.3006791799532962e-01
1.106606606606606e+00  3.6154827046167431e-01 -9.3162819832915411e-01  3.4275535825620700e-02  1.3301723497770300e-02  3.4275535825620700e-02  1.3301723497770300e-02  3.6154827046167431e-01 -9.3162819832915411e-01
1.108108108108108e+00  3.5754545109970920e-01 -9.3317983822840567e-01  3.4139959613616912e-02  1.3080637579729640e-02  3.4139959613616912e-02  1.3080637579729640e-02  3.5754545109970920e-01 -9.3317983822840567e-01
1.109609609609610e+00  3.5351421550555651e-01 -9.3472260341764590e-01  3.4000043338512011e-02  1.2858893755240170e-02  3.4000043338512011e-02  1.2858893755240170e-02  3.5351421550555651e-01 -9.3472260341764590e-01
1.111111111111111e+00  3.4945433557556810e-01 -9.3625625498253195e-01  3.3855729637426911e-02  1.2636531337346131e-02  3.3855729637426911e-02  1.2636531337346131e-02  3.4945433557556810e-01 -9.3625625498253195e-01
1.112612612612613e+00  3.4536558159156505e-01 -9.3778054927713683e-01  3.3706960842471489e-02  1.2413590945149799e-02  3.3706960842471489e-02  1.2413590945149799e-02  3.4536558159156505e-01 -9.3778054927713683e-01
1.114114114114114e+00  3.4124772222624478e-01 -9.3929523782935420e-01  3.3553678995910372e-02  1.2190114533238155e-02  3.3553678995910372e-02  1.2190114533238155e-02  3.4124772222624478e-01 -9.3929523782935420e-01
1.115615615615616e+00  3.3710052454945155e-01 -9.4080006724433496e-01  3.3395825866227538e-02  1.1966145421568831e-02  3.3395825866227538e-02  1.1966145421568831e-02  3.3710052454945155e-01 -9.4080006724433496e-01
1.117117117117117e+00  3.3292375403535324e-01 -9.4229477910592985e-01  3.3233342965124660e-02  1.1741728325812885e-02  3.3233342965124660e-02  1.1741728325812885e-02  3.3292375403535324e-01 -9.4229477910592985e-01
1.118618618618619e+00  3.2871717457055322e-01 -9.4377910987608638e-01  3.3066171565490549e-02  1.1516909388151558e-02  3.3066171565490549e-02  1.1516909388151558e-02  3.2871717457055322e-01 -9.4377910987608638e-01
1.120120120120120e+00  3.2448054846319851e-01 -9.4525279079217006e-01  3.2894252720379491e-02  1.1291736208523456e-02  3.2894252720379491e-02  1.1291736208523456e-02  3.2448054846319851e-01 -9.4525279079217006e-01
1.121621621621622e+00  3.2021363645309819e-01 -9.4671554776214595e-01  3.2717527283037853e-02  1.1066257876317414e-02  3.2717527283037853e-02  1.1066257876317414e-02  3.2021363645309819e-01 -9.4671554776214595e-01
1.123123123123123e+00  3.1591619772292934e-01 -9.4816710125760251e-01  3.2535935928020135e-02  1.0840525002506308e-02  3.2535935928020135e-02  1.0840525002506308e-02  3.1591619772292934e-01 -9.4816710125760251e-01
1.124624624624625e+00  3.1158798991054865e-01 -9.4960716620454999e-01  3.2349419173436374e-02  1.0614589752215062e-02  3.2349419173436374e-02  1.0614589752215062e-02  3.1158798991054865e-01 -9.4960716620454999e-01
1.126126126126126e+00  3.0722876912247382e-01 -9.5103545187197380e-01  3.2157917404374355e-02  1.0388505877715806e-02  3.2157917404374355e-02  1.0388505877715806e-02  3.0722876912247382e-01 -9.5103545187197380e-01
1.127627627627628e+00  3.0283828994857570e-01 -9.5245166175807128e-01  3.1961370897541481e-02  1.0162328751841894e-02  3.1961370897541481e-02  1.0162328751841894e-02  3.0283828994857570e-01 -9.5245166175807128e-01
1.129129129129129e+00  2.9841630547803955e-01 -9.5385549347413634e-01  3.1759719847173504e-02  9.9361154018117164e-03  3.1759719847173504e-02  9.9361154018117164e-03  2.9841630547803955e-01 -9.5385549347413634e-01
1.130630630630631e+00  2.9396256731664128e-01 -9.5524663862605708e-01  3.1552904392257060e-02  9.7099245434511990e-03  3.1552904392257060e-02  9.7099245434511990e-03  2.9396256731664128e-01 -9.5524663862605708e-01
1.132132132132132e+00  2.8947682560539867e-01 -9.5662478269335804e-01  3.1340864645116491e-02  9.4838166158036155e-03  3.1340864645116491e-02  9.4838166158036155e-03  2.8947682560539867e-01 -9.5662478269335804e-01
1.133633633633634e+00  2.8495882904065034e-01 -9.5798960490574359e-01  3.1123540721415544e-02  9.2578538161133574e-03  3.1123540721415544e-02  9.2578538161133574e-03  2.8495882904065034e-01 -9.5798960490574359e-01
1.135135135135135e+00  2.8040832489562945e-01 -9.5934077811710194e-01  3.0900872771627341e-02  9.0321001351693908e-03  3.0900872771627341e-02  9.0321001351693908e-03  2.8040832489562945e-01 -9.5934077811710194e-01
1.136636636636637e+00  2.7582505904358129e-01 -9.6067796867691146e-01  3.0672801014026314e-02  8.8066213929916225e-03  3.0672801014026314e-02  8.8066213929916225e-03  2.7582505904358129e-01 -9.6067796867691146e-01
1.138138138138138e+00  2.7120877598250254e-01 -9.6200083629900124e-01  3.0439265769259732e-02  8.5814852748435106e-03  3.0439265769259732e-02  8.5814852748435106e-03  2.7120877598250254e-01 -9.6200083629900124e-01
1.139639639639640e+00  2.6655921886155126e-01 -9.6330903392760248e-01  3.0200207496554742e-02  8.3567613675503069e-03  3.0200207496554742e-02  8.3567613675503069e-03  2.6655921886155126e-01 -9.6330903392760248e-01
1.141141141141141e+00  2.6187612950921307e-01 -9.6460220760065918e-01  2.9955566831623415e-02  8.1325211961029917e-03  2.9955566831623415e-02  8.1325211961029917e-03  2.6187612950921307e-01 -9.6460220760065918e-01
1.142642642642643e+00  2.5715924846328214e-01 -9.6587999631032651e-01  2.9705284626325608e-02  7.9088382605238938e-03  2.9705284626325608e-02  7.9088382605238938e-03  2.5715924846328214e-01 -9.6587999631032651e-01
1.144144144144144e+00  2.5240831500273636e-01 -9.6714203186060965e-01  2.9449301990153685e-02  7.6857880729691453e-03  2.9449301990153685e-02  7.6857880729691453e-03  2.5240831500273636e-01 -9.6714203186060965e-01
1.145645645645646e+00  2.4762306718157123e-01 -9.6838793872208240e-01  2.9187560333605193e-02  7.4634481950406791e-03  2.9187560333605193e-02  7.4634481950406791e-03  2.4762306718157123e-01 -9.6838793872208240e-01
1.147147147147147e+00  2.4280324186469374e-01 -9.6961733388363402e-01  2.8920001413511212e-02  7.2418982752785171e-03  2.8920001413511212e-02  7.2418982752785171e-03  2.4280324186469374e-01 -9.6961733388363402e-01
1.148648648648649e+00  2.3794857476593129e-01 -9.7082982670119644e-01  2.8646567380388711e-02  7.0212200868007314e-03  2.8646567380388711e-02  7.0212200868007314e-03  2.3794857476593129e-01 -9.7082982670119644e-01
1.150150150150150e+00  2.3305880048825653e-01 -9.7202501874336367e-01  2.8367200827890675e-02  6.8014975650572112e-03  2.8367200827890675e-02  6.8014975650572112e-03  2.3305880048825653e-01 -9.7202501874336367e-01
1.151651651651652e+00  2.2813365256630713e-01 -9.7320250363388672e-01  2.8081844844425559e-02  6.5828168456594782e-03  2.8081844844425559e-02  6.5828168456594782e-03  2.2813365256630713e-01 -9.7320250363388672e-01
1.153153153153153e+00  2.2317286351130058e-01 -9.7436186689094417e-01  2.7790443067024422e-02  6.3652663022472199e-03  2.7790443067024422e-02  6.3652663022472199e-03  2.2317286351130058e-01 -9.7436186689094417e-01
1.154654654654655e+00  2.1817616485841992e-01 -9.7550268576316101e-01  2.7492939737532238e-02  6.1489365843475918e-03  2.7492939737532238e-02  6.1489365843475918e-03  2.1817616485841992e-01 -9.7550268576316101e-01
1.156156156156156e+00  2.1314328721678735e-01 -9.7662452906229325e-01  2.7189279761204287e-02  5.9339206551818069e-03  2.7189279761204287e-02  5.9339206551818069e-03  2.1314328721678735e-01 -9.7662452906229325e-01
1.157657657657658e+00  2.0807396032210476e-01 -9.7772695699252499e-01  2.6879408767791074e-02  5.7203138293687814e-03  2.6879408767791074e-02  5.7203138293687814e-03  2.0807396032210476e-01 -9.7772695699252499e-01
1.159159159159159e+00  2.0296791309208786e-01 -9.7880952097631380e-01  2.6563273175195586e-02  5.5082138104733027e-03  2.6563273175195586e-02  5.5082138104733027e-03  2.0296791309208786e-01 -9.7880952097631380e-01
1.160660660660661e+00  1.9782487368477877e-01 -9.7987176347672522e-01  2.6240820255791927e-02  5.2977207283413305e-03  2.6240820255791927e-02  5.2977207283413305e-03  1.9782487368477877e-01 -9.7987176347672522e-01
1.162162162162162e+00  1.9264456955985848e-01 -9.8091321781618879e-01  2.5911998205493565e-02  5.0889371761616287e-03  2.5911998205493565e-02  5.0889371761616287e-03  1.9264456955985848e-01 -9.8091321781618879e-01
1.163663663663664e+00  1.8742672754307485e-01 -9.8193340799160689e-01  2.5576756215663847e-02  4.8819682471887647e-03  2.5576756215663847e-02  4.8819682471887647e-03  1.8742672754307485e-01 -9.8193340799160689e-01
1.165165165165165e+00  1.8217107389390499e-01 -9.8293184848575332e-01  2.5235044547964429e-02  4.6769215710582828e-03  2.5235044547964429e-02  4.6769215710582828e-03  1.8217107389390499e-01 -9.8293184848575332e-01
1.166666666666667e+00  1.7687733437656081e-01 -9.8390804407491472e-01  2.4886814612237698e-02  4.4739073496192303e-03  2.4886814612237698e-02  4.4739073496192303e-03  1.7687733437656081e-01 -9.8390804407491472e-01
1.168168168168168e+00  1.7154523433448965e-01 -9.8486148963266640e-01  2.4532019047522537e-02  4.2730383922058388e-03  2.4532019047522537e-02  4.2730383922058388e-03  1.7154523433448965e-01 -9.8486148963266640e-01
1.169669669669670e+00  1.6617449876847132e-01 -9.8579166992976042e-01  2.4170611806306627e-02  4.0744301502633785e-03  2.4170611806306627e-02  4.0744301502633785e-03  1.6617449876847132e-01 -9.8579166992976042e-01
1.171171171171171e+00  1.6076485241847710e-01 -9.8669805943002642e-01  2.3802548242119744e-02  3.8782007512394804e-03  2.3802548242119744e-02  3.8782007512394804e-03  1.6076485241847710e-01 -9.8669805943002642e-01
1.172672672672673e+00  1.5531601984940330e-01 -9.8758012208223001e-01  2.3427785200573144e-02  3.6844710316443589e-03  2.3427785200573144e-02  3.6844710316443589e-03  1.5531601984940330e-01 -9.8758012208223001e-01
1.174174174174174e+00  1.4982772554084495e-01 -9.8843731110781985e-01  2.3046281113958685e-02  3.4933645691797507e-03  2.3046281113958685e-02  3.4933645691797507e-03  1.4982772554084495e-01 -9.8843731110781985e-01
1.175675675675676e+00  1.4429969398104375e-01 -9.8926906878449350e-01  2.2657996099515555e-02  3.3050077138275808e-03  2.2657996099515555e-02  3.3050077138275808e-03  1.4429969398104375e-01 -9.8926906878449350e-01
1.177177177177177e+00  1.3873164976518015e-01 -9.9007482622549925e-01  2.2262892061482079e-02  3.1195296177847567e-03  2.2262892061482079e-02  3.1195296177847567e-03  1.3873164976518015e-01 -9.9007482622549925e-01
1.178678678678679e+00  1.3312331769815464e-01 -9.9085400315461936e-01  2.1860932797049423e-02  2.9370622641219628e-03  2.1860932797049423e-02  2.9370622641219628e-03  1.3312331769815464e-01 -9.9085400315461936e-01
1.180180180180180e+00  1.2747442290203306e-01 -9.9160600767676610e-01  2.1452084106335693e-02  2.7577404940374410e-03  2.1452084106335693e-02  2.7577404940374410e-03  1.2747442290203306e-01 -9.9160600767676610e-01
1.181681681681682e+00  1.2178469092831881e-01 -9.9233023604409665e-01  2.1036313906503484e-02  2.5817020325688972e-03  2.1036313906503484e-02  2.5817020325688972e-03  1.2178469092831881e-01 -9.9233023604409665e-01
1.183183183183183e+00  1.1605384787524461e-01 -9.9302607241760088e-01  2.0613592350145409e-02  2.4090875126187485e-03  2.0613592350145409e-02  2.4090875126187485e-03  1.1605384787524461e-01 -9.9302607241760088e-01
1.184684684684685e+00  1.1028162051023813e-01 -9.9369288862406269e-01  2.0183891948063699e-02  2.2400404971380742e-03  2.0183891948063699e-02  2.2400404971380742e-03  1.1028162051023813e-01 -9.9369288862406269e-01
1.186186186186186e+00  1.0446773639777850e-01 -9.9433004390835544e-01  1.9747187696574037e-02  2.0747074993072295e-03  1.9747187696574037e-02  2.0747074993072295e-03  1.0446773639777850e-01 -9.9433004390835544e-01
1.187687687687688e+00  9.8611924032816808e-02 -9.9493688468096264e-01  1.9303457209463522e-02  1.9132380005398419e-03  1.9303457209463522e-02  1.9132380005398419e-03  9.8611924032816808e-02 -9.9493688468096264e-01
1.189189189189189e+00  9.2713912979972071e-02 -9.9551274426068437e-01  1.8852680854737802e-02  1.7557844661279780e-03  1.8852680854737802e-02  1.7557844661279780e-03  9.2713912979972071e-02 -9.9551274426068437e-01
1.190690690690691e+00  8.6773434018709919e-02 -9.9605694261241973e-01  1.8394841896291460e-02  1.6025023583350973e-03  1.8394841896291460e-02  1.6025023583350973e-03  8.6773434018709919e-02 -9.9605694261241973e-01
1.192192192192192e+00  8.0790219294710627e-02 -9.9656878607999011e-01  1.7929926640639932e-02  1.4535501467322718e-03  1.7929926640639932e-02  1.4535501467322718e-03  8.0790219294710627e-02 -9.9656878607999011e-01
1.193693693693694e+00  7.4764002477647071e-02 -9.9704756711389309e-01  1.7457924588850617e-02  1.3090893155615164e-03  1.7457924588850617e-02  1.3090893155615164e-03  7.4764002477647071e-02 -9.9704756711389309e-01
1.195195195195195e+00  6.8694518925617676e-02 -9.9749256399394937e-01  1.6978828593816005e-02  1.1692843678980927e-03  1.6978828593816005e-02  1.1692843678980927e-03  6.8694518925617676e-02 -9.9749256399394937e-01
1.196696696696697e+00  6.2581505856445577e-02 -9.9790304054672585e-01  1.6492635023009315e-02  1.0343028263699794e-03  1.6492635023009315e-02  1.0343028263699794e-03  6.2581505856445577e-02 -9.9790304054672585e-01
1.198198198198198e+00  5.6424702526094994e-02 -9.9827824585769342e-01  1.5999343926865865e-02  9.0431523017960383e-04  1.5999343926865865e-02  9.0431523017960383e-04  5.6424702526094994e-02 -9.9827824585769342e-01
1.199699699699700e+00  5.0223850414472096e-02 -9.9861741397804760e-01  1.5498959212935454e-02  7.7949512815884536e-04  1.5498959212935454e-02  7.7949512815884536e-04  5.0223850414472096e-02 -9.9861741397804760e-01
1.201201201201201e+00  4.3978693418832003e-02 -9.9891976362607893e-01  1.4991488825950611e-02  6.6001906757260156e-04  1.4991488825950611e-02  6.6001906757260156e-04  4.3978693418832003e-02 -9.9891976362607893e-01
1.202702702702703e+00  3.7688978055103066e-02 -9.9918449788306374e-01  1.4476944933955734e-02  5.4606657837144492e-04  1.4476944933955734e-02  5.4606657837144492e-04  3.7688978055103066e-02 -9.9918449788306374e-01
1.204204204204204e+00  3.1354453667365820e-02 -9.9941080388357340e-01  1.3955344120643851e-02  4.3782015257646384e-04  1.3955344120643851e-02  4.3782015257646384e-04  3.1354453667365820e-02 -9.9941080388357340e-01
1.205705705705706e+00  2.4974872645785903e-02 -9.9959785250012712e-01  1.3426707584045319e-02  3.3546521846263607e-04  1.3426707584045319e-02  3.3546521846263607e-04  2.4974872645785903e-02 -9.9959785250012712e-01
1.207207207207207e+00  1.8549990653297748e-02 -9.9974479802214389e-01  1.2891061341715483e-02  2.3919010918885871e-04  1.2891061341715483e-02  2.3919010918885871e-04  1.8549990653297748e-02 -9.9974479802214389e-01
1.208708708708709e+00  1.2079566861334021e-02 -9.9985077782906884e-01  1.2348436442564227e-02  1.4918602550348901e-04  1.2348436442564227e-02  1.4918602550348901e-04  1.2079566861334021e-02 -9.9985077782906884e-01
1.210210210210210e+00  5.5633641949062373e-03 -9.9991491205764715e-01  1.1798869185470236e-02  6.5646992134310404e-05  1.1798869185470236e-02  6.5646992134310404e-05  5.5633641949062373e-03 -9.9991491205764715e-01
1.211711711711712e+00 -9.9885041263133548e-04 -9.9993630326323069e-01  1.1242401344822458e-02 -1.1230192548858896e-05  1.1242401344822458e-02 -1.1230192548858896e-05 -9.9885041263133548e-04 -9.9993630326323069e-01
1.213213213213213e+00 -7.6073057548110608e-03 -9.9991403607509188e-01  1.0679080403125596e-02 -8.1246014033036981e-05  1.0679080403125596e-02 -8.1246014033036981e-05 -7.6073057548110608e-03 -9.9991403607509188e-01
1.214714714714715e+00 -1.4262226076925606e-02 -9.9984717684560465e-01  1.0108959790807944e-02 -1.4419830677915232e-04  1.0108959790807944e-02 -1.4419830677915232e-04 -1.4262226076925606e-02 -9.9984717684560465e-01
1.216216216216216e+00 -2.0963830790210115e-02 -9.9973477329327920e-01  9.5320991333607968e-03 -1.9988232743872215e-04  9.5320991333607968e-03 -1.9988232743872215e-04 -2.0963830790210115e-02 -9.9973477329327920e-01
1.217717717717718e+00 -2.7712334174962560e-02 -9.9957585413954098e-01  8.9485645059400841e-03 -2.4809083667621384e-04  8.9485645059400841e-03 -2.4809083667621384e-04 -2.7712334174962560e-02 -9.9957585413954098e-01
1.219219219219219e+00 -3.4507945072211832e-02 -9.9936942873918477e-01  8.3584286955519765e-03 -2.8861419012986495e-04  8.3584286955519765e-03 -2.8861419012986495e-04 -3.4507945072211832e-02 -9.9936942873918477e-01
1.220720720720721e+00 -4.1350866563583513e-02 -9.9911448670442726e-01  7.7617714709394027e-03 -3.2124043907171733e-04  7.7617714709394027e-03 -3.2124043907171733e-04 -4.1350866563583513e-02 -9.9911448670442726e-01
1.222222222222222e+00 -4.8241295638935797e-02 -9.9880999752250543e-01  7.1586798602809119e-03 -3.4575544135612797e-04  7.1586798602809119e-03 -3.4575544135612797e-04 -4.8241295638935797e-02 -9.9880999752250543e-01
1.223723723723724e+00 -5.5179422851373346e-02 -9.9845491016669297e-01  6.5492484368032148e-03 -3.6194298327675784e-04  6.5492484368032148e-03 -3.6194298327675784e-04 -5.5179422851373346e-02 -9.9845491016669297e-01
1.225225225225225e+00 -6.2165431959212848e-02 -9.9804815270070946e-01  5.9335796124030228e-03 -3.6958491298367830e-04  5.9335796124030228e-03 -3.6958491298367830e-04 -6.2165431959212848e-02 -9.9804815270070946e-01
1.226726726726727e+00 -6.9199499554456492e-02 -9.9758863187642455e-01  5.3117839393617321e-03 -3.6846128614541384e-04  5.3117839393617321e-03 -3.6846128614541384e-04 -6.9199499554456492e-02 -9.9758863187642455e-01
1.228228228228228e+00 -7.6281794677347248e-02 -9.9707523272475729e-01  4.6839804202246788e-03 -3.5835052457563847e-04  4.6839804202246788e-03 -3.5835052457563847e-04 -7.6281794677347248e-02 -9.9707523272475729e-01
1.229729729729730e+00 -8.3412478416515945e-02 -9.9650681813973274e-01  4.0502968259082516e-03 -3.3902958858047735e-04  4.0502968259082516e-03 -3.3902958858047735e-04 -8.3412478416515945e-02 -9.9650681813973274e-01
1.231231231231231e+00 -9.0591703494271703e-02 -9.9588222845557373e-01  3.4108700220783794e-03 -3.1027416382037516e-04  3.4108700220783794e-03 -3.1027416382037516e-04 -9.0591703494271703e-02 -9.9588222845557373e-01
1.232732732732733e+00 -9.7819613836511665e-02 -9.9520028101676961e-01  2.7658463038358035e-03 -2.7185886352035964e-04  2.7658463038358035e-03 -2.7185886352035964e-04 -9.7819613836511665e-02 -9.9520028101676961e-01
1.234234234234235e+00 -1.0509634412678326e-01 -9.9445976974101391e-01  2.1153817387180368e-03 -2.2355744690378231e-04  2.1153817387180368e-03 -2.2355744690378231e-04 -1.0509634412678326e-01 -9.9445976974101391e-01
1.235735735735736e+00 -1.1242201934392823e-01 -9.9365946467495814e-01  1.4596425180162225e-03 -1.6514305476808230e-04  1.4596425180162225e-03 -1.6514305476808230e-04 -1.1242201934392823e-01 -9.9365946467495814e-01
1.237237237237237e+00 -1.1979675428281693e-01 -9.9279811154263919e-01  7.9880531637983268e-04 -9.6388463166464152e-05  7.9880531637983268e-04 -9.6388463166464152e-05 -1.1979675428281693e-01 -9.9279811154263919e-01
1.238738738738739e+00 -1.2722065305757635e-01 -9.9187443128654162e-01  1.3305765966243840e-04 -1.7066356206613361e-05  1.3305765966243840e-04 -1.7066356206613361e-05 -1.2722065305757635e-01 -9.9187443128654162e-01
1.240240240240240e+00 -1.3469380858675306e-01 -9.9088711960114273e-01 -5.3740169906802446e-04  7.3050380973365688e-05 -5.3740169906802446e-04  7.3050380973365688e-05 -1.3469380858675306e-01 -9.9088711960114273e-01
1.241741741741742e+00 -1.4221630205982172e-01 -9.8983484645887820e-01 -1.2123623954543321e-03  1.7418834793978449e-04 -1.2123623954543321e-03  1.7418834793978449e-04 -1.4221630205982172e-01 -9.8983484645887820e-01
1.243243243243243e+00 -1.4978820238441448e-01 -9.8871625562839449e-01 -1.8916020618423572e-03  2.8657329224342297e-04 -1.8916020618423572e-03  2.8657329224342297e-04 -1.4978820238441448e-01 -9.8871625562839449e-01
1.244744744744745e+00 -1.5740956561362804e-01 -9.8752996418499162e-01 -2.5748859275068693e-03  4.1042974902336614e-04 -2.5748859275068693e-03  4.1042974902336614e-04 -1.5740956561362804e-01 -9.8752996418499162e-01
1.246246246246246e+00 -1.6508043435278130e-01 -9.8627456201310948e-01 -3.2619664113123122e-03  5.4598065565485241e-04 -3.2619664113123122e-03  5.4598065565485241e-04 -1.6508043435278130e-01 -9.8627456201310948e-01
1.247747747747748e+00 -1.7280083714490596e-01 -9.8494861130076428e-01 -3.9525827070488184e-03  6.9344694010025731e-04 -3.9525827070488184e-03  6.9344694010025731e-04 -1.7280083714490596e-01 -9.8494861130076428e-01
1.249249249249249e+00 -1.8057078783429750e-01 -9.8355064602575604e-01 -4.6464603617304943e-03  8.5304708155978302e-04 -4.6464603617304943e-03  8.5304708155978302e-04 -1.8057078783429750e-01 -9.8355064602575604e-01
1.250750750750751e+00 -1.8839028490737064e-01 -9.8207917143354151e-01 -5.3433108471834913e-03  1.0249966419511440e-03 -5.3433108471834913e-03  1.0249966419511440e-03 -1.8839028490737064e-01 -9.8207917143354151e-01
1.252252252252252e+00 -1.9625931081007991e-01 -9.8053266350657653e-01 -6.0428311253106397e-03  1.2095077666805457e-03 -6.0428311253106397e-03  1.2095077666805457e-03 -1.9625931081007991e-01 -9.8053266350657653e-01
1.253753753753754e+00 -2.0417783124112024e-01 -9.7890956842498988e-01 -6.7447032074694109e-03  1.4067886530947276e-03 -6.7447032074694109e-03  1.4067886530947276e-03 -2.0417783124112024e-01 -9.7890956842498988e-01
1.255255255255255e+00 -2.1214579442007434e-01 -9.7720830201836961e-01 -7.4485937084609695e-03  1.6170429849296513e-03 -7.4485937084609695e-03  1.6170429849296513e-03 -2.1214579442007434e-01 -9.7720830201836961e-01
1.256756756756757e+00 -2.2016313032968679e-01 -9.7542724920850565e-01 -8.1541533956967661e-03  1.8404693309949723e-03 -8.1541533956967661e-03  1.8404693309949723e-03 -2.2016313032968679e-01 -9.7542724920850565e-01
1.258258258258258e+00 -2.2822974993134562e-01 -9.7356476344283394e-01 -8.8610167341758549e-03  2.0772605062520581e-03 -8.8610167341758549e-03  2.0772605062520581e-03 -2.2822974993134562e-01 -9.7356476344283394e-01
1.259759759759760e+00 -2.3634554435289534e-01 -9.7161916611835919e-01 -9.5688014279877928e-03  2.3276028933614545e-03 -9.5688014279877928e-03  2.3276028933614545e-03 -2.3634554435289534e-01 -9.7161916611835919e-01
1.261261261261261e+00 -2.4451038404779377e-01 -9.6958874599581801e-01 -1.0277107959135202e-02  2.5916757226879202e-03 -1.0277107959135202e-02  2.5916757226879202e-03 -2.4451038404779377e-01 -9.6958874599581801e-01
1.262762762762763e+00 -2.5272411792461086e-01 -9.6747175860378187e-01 -1.0985519124561692e-02  2.8696503086616757e-03 -1.0985519124561692e-02  2.8696503086616757e-03 -2.5272411792461086e-01 -9.6747175860378187e-01
1.264264264264265e+00 -2.6098657244585466e-01 -9.6526642563240006e-01 -1.1693599572371248e-02  3.1616892403027817e-03 -1.1693599572371248e-02  3.1616892403027817e-03 -2.6098657244585466e-01 -9.6526642563240006e-01
1.265765765765766e+00 -2.6929755069498434e-01 -9.6297093431646841e-01 -1.2400895338325269e-02  3.4679455236167594e-03 -1.2400895338325269e-02  3.4679455236167594e-03 -2.6929755069498434e-01 -9.6297093431646841e-01
1.267267267267267e+00 -2.7765683141051695e-01 -9.6058343680743696e-01 -1.3106933383824574e-02  3.7885616734728168e-03 -1.3106933383824574e-02  3.7885616734728168e-03 -2.7765683141051695e-01 -9.6058343680743696e-01
1.268768768768769e+00 -2.8606416798597117e-01 -9.5810204953398592e-01 -1.3811221136697945e-02  4.1236687524689496e-03 -1.3811221136697945e-02  4.1236687524689496e-03 -2.8606416798597117e-01 -9.5810204953398592e-01
1.270270270270270e+00 -2.9451928743442390e-01 -9.5552485255072206e-01 -1.4513246036262254e-02  4.4733853541852660e-03 -1.4513246036262254e-02  4.4733853541852660e-03 -2.9451928743442390e-01 -9.5552485255072206e-01
1.271771771771772e+00 -3.0302188931632534e-01 -9.5284988887453503e-01 -1.5212475084254856e-02  4.8378165281135989e-03 -1.5212475084254856e-02  4.8378165281135989e-03 -3.0302188931632534e-01 -9.5284988887453503e-01
1.273273273273273e+00 -3.1157164462918641e-01 -9.5007516380808166e-01 -1.5908354403396337e-02  5.2170526434384343e-03 -1.5908354403396337e-02  5.2170526434384343e-03 -3.1157164462918641e-01 -9.5007516380808166e-01
1.274774774774775e+00 -3.2016819465763369e-01 -9.4719864424986921e-01 -1.6600308805514285e-02  5.6111681887275489e-03 -1.6600308805514285e-02  5.6111681887275489e-03 -3.2016819465763369e-01 -9.4719864424986921e-01
1.276276276276276e+00 -3.2881114978228115e-01 -9.4421825799028325e-01 -1.7287741371327575e-02  6.0202205044666999e-03 -1.7287741371327575e-02  6.0202205044666999e-03 -3.2881114978228115e-01 -9.4421825799028325e-01
1.277777777777778e+00 -3.3750008824575534e-01 -9.4113189299293731e-01 -1.7970033044200810e-02  6.4442484452521091e-03 -1.7970033044200810e-02  6.4442484452521091e-03 -3.3750008824575534e-01 -9.4113189299293731e-01
1.279279279279279e+00 -3.4623455487410054e-01 -9.3793739666055786e-01 -1.8646542240375281e-02  6.8832709683223341e-03 -1.8646542240375281e-02  6.8832709683223341e-03 -3.4623455487410054e-01 -9.3793739666055786e-01
1.280780780780781e+00 -3.5501405975169770e-01 -9.3463257508467190e-01 -1.9316604478415690e-02  7.3372856449807700e-03 -1.9316604478415690e-02  7.3372856449807700e-03 -3.5501405975169770e-01 -9.3463257508467190e-01
1.282282282282282e+00 -3.6383807684769132e-01 -9.3121519227818395e-01 -1.9979532030857960e-02  7.8062670913262256e-03 -1.9979532030857960e-02  7.8062670913262256e-03 -3.6383807684769132e-01 -9.3121519227818395e-01
1.283783783783784e+00 -3.7270604259180701e-01 -9.2768296938993877e-01 -2.0634613601301279e-02  8.2901653145681688e-03 -2.0634613601301279e-02  8.2901653145681688e-03 -3.7270604259180701e-01 -9.2768296938993877e-01
1.285285285285285e+00 -3.8161735439726030e-01 -9.2403358390019597e-01 -2.1281114030475258e-02  8.7889039710634075e-03 -2.1281114030475258e-02  8.7889039710634075e-03 -3.8161735439726030e-01 -9.2403358390019597e-01
1.286786786786787e+00 -3.9057136912833967e-01 -9.2026466879598290e-01 -2.1918274035118999e-02  9.3023785320659816e-03 -2.1918274035118999e-02  9.3023785320659816e-03 -3.9057136912833967e-01 -9.2026466879598290e-01
1.288288288288288e+00 -3.9956740151001535e-01 -9.1637381172503851e-01 -2.2545309983836949e-02  9.8304543530348468e-03 -2.2545309983836949e-02  9.8304543530348468e-03 -3.9956740151001535e-01 -9.1637381172503851e-01
1.289789789789790e+00 -4.0860472247682184e-01 -9.1235855412711309e-01 -2.3161413714454387e-02  1.0372964642195868e-02 -2.3161413714454387e-02  1.0372964642195868e-02 -4.0860472247682184e-01 -9.1235855412711309e-01
1.291291291291291e+00 -4.1768255745791355e-01 -9.0821639034116564e-01 -2.3765752397777350e-02  1.0929708323901029e-02 -2.3765752397777350e-02  1.0929708323901029e-02 -4.1768255745791355e-01 -9.0821639034116564e-01
1.292792792792793e+00 -4.2680008459509200e-01 -9.0394476668696866e-01 -2.4357468453076028e-02  1.1500447792177036e-02 -2.4357468453076028e-02  1.1500447792177036e-02 -4.2680008459509200e-01 -9.0394476668696866e-01
1.294294294294295e+00 -4.3595643289026809e-01 -8.9954108051945114e-01 -2.4935679521055722e-02  1.2084906549700698e-02 -2.4935679521055722e-02  1.2084906549700698e-02 -4.3595643289026809e-01 -8.9954108051945114e-01
1.295795795795796e+00 -4.4515068027855004e-01 -8.9500267925402466e-01 -2.5499478500562982e-02  1.2682766727285001e-02 -2.5499478500562982e-02  1.2682766727285001e-02 -4.4515068027855004e-01 -8.9500267925402466e-01
1.297297297297297e+00 -4.5438185162286221e-01 -8.9032685936098555e-01 -2.6047933655789519e-02  1.3293666478805279e-02 -2.6047933655789519e-02  1.3293666478805279e-02 -4.5438185162286221e-01 -8.9032685936098555e-01
1.298798798798799e+00 -4.6364891662559127e-01 -8.8551086532692280e-01 -2.6580088801298061e-02  1.3917197246342097e-02 -2.6580088801298061e-02  1.3917197246342097e-02 -4.6364891662559127e-01 -8.8551086532692280e-01
1.300300300300300e+00 -4.7295078765247694e-01 -8.8055188858100175e-01 -2.7094963572799936e-02  1.4552900890169499e-02 -2.7094963572799936e-02  1.4552900890169499e-02 -4.7295078765247694e-01 -8.8055188858100175e-01
1.301801801801802e+00 -4.8228631746342465e-01 -8.7544706638369152e-01 -2.7591553792260685e-02  1.5200266678066846e-02 -2.7591553792260685e-02  1.5200266678066846e-02 -4.8228631746342465e-01 -8.7544706638369152e-01
1.303303303303303e+00 -4.9165429684457446e-01 -8.7019348067549318e-01 -2.8068831936620183e-02  1.5858728128295186e-02 -2.8068831936620183e-02  1.5858728128295186e-02 -4.9165429684457446e-01 -8.7019348067549318e-01
1.304804804804805e+00 -5.0105345213534469e-01 -8.6478815688299193e-01 -2.8525747720166771e-02  1.6527659700438482e-02 -2.8525747720166771e-02  1.6527659700438482e-02 -5.0105345213534469e-01 -8.6478815688299193e-01
1.306306306306307e+00 -5.1048244264368281e-01 -8.5922806267936791e-01 -2.8961228801429467e-02  1.7206373328187259e-02 -2.8961228801429467e-02  1.7206373328187259e-02 -5.1048244264368281e-01 -8.5922806267936791e-01
1.307807807807808e+00 -5.1993985794210495e-01 -8.5351010669638661e-01 -2.9374181626337540e-02  1.7894114788023739e-02 -2.9374181626337540e-02  1.7894114788023739e-02 -5.1993985794210495e-01 -8.5351010669638661e-01
1.309309309309309e+00 -5.2942421503643400e-01 -8.4763113718468275e-01 -2.9763492420352127e-02  1.8590059897663384e-02 -2.9763492420352127e-02  1.8590059897663384e-02 -5.2942421503643400e-01 -8.4763113718468275e-01
1.310810810810811e+00 -5.3893395539838063e-01 -8.4158794061896969e-01 -3.0128028343313885e-02  1.9293310538022565e-02 -3.0128028343313885e-02  1.9293310538022565e-02 -5.3893395539838063e-01 -8.4158794061896969e-01
1.312312312312312e+00 -5.4846744185228680e-01 -8.3537724024469917e-01 -3.0466638821864477e-02  2.0002890492409026e-02 -3.0466638821864477e-02  2.0002890492409026e-02 -5.4846744185228680e-01 -8.3537724024469917e-01
1.313813813813814e+00 -5.5802295530546342e-01 -8.2899569456242950e-01 -3.0778157075516812e-02  2.0717741096594140e-02 -3.0778157075516812e-02  2.0717741096594140e-02 -5.5802295530546342e-01 -8.2899569456242950e-01
1.315315315315315e+00 -5.6759869131050644e-01 -8.2243989574611809e-01 -3.1061401853751044e-02  2.1436716693399832e-02 -3.1061401853751044e-02  2.1436716693399832e-02 -5.6759869131050644e-01 -8.2243989574611809e-01
1.316816816816817e+00 -5.7719275644689561e-01 -8.1570636799135932e-01 -3.1315179402939153e-02  2.2158579885455748e-02 -3.1315179402939153e-02  2.2158579885455748e-02 -5.7719275644689561e-01 -8.1570636799135932e-01
1.318318318318318e+00 -5.8680316450796610e-01 -8.0879156578942502e-01 -3.1538285683427397e-02  2.2881996579833103e-02 -3.1538285683427397e-02  2.2881996579833103e-02 -5.8680316450796610e-01 -8.0879156578942502e-01
1.319819819819820e+00 -5.9642783247793851e-01 -8.0169187212296644e-01 -3.1729508858774437e-02  2.3605530818361222e-02 -3.1729508858774437e-02  2.3605530818361222e-02 -5.9642783247793851e-01 -8.0169187212296644e-01
1.321321321321321e+00 -6.0606457628232913e-01 -7.9440359657910176e-01 -3.1887632080942703e-02  2.4327639387593050e-02 -3.1887632080942703e-02  2.4327639387593050e-02 -6.0606457628232913e-01 -7.9440359657910176e-01
1.322822822822823e+00 -6.1571110629328740e-01 -7.8692297337554817e-01 -3.2011436597183418e-02  2.5046666202592875e-02 -3.2011436597183418e-02  2.5046666202592875e-02 -6.1571110629328740e-01 -7.8692297337554817e-01
1.324324324324324e+00 -6.2536502256972837e-01 -7.7924615929560392e-01 -3.2099705206484731e-02  2.5760836459021861e-02 -3.2099705206484731e-02  2.5760836459021861e-02 -6.2536502256972837e-01 -7.7924615929560392e-01
1.325825825825826e+00 -6.3502380981012507e-01 -7.7136923152773051e-01 -3.2151226095731449e-02  2.6468250548368055e-02 -3.2151226095731449e-02  2.6468250548368055e-02 -6.3502380981012507e-01 -7.7136923152773051e-01
1.327327327327327e+00 -6.4468483199363025e-01 -7.6328818540570120e-01 -3.2164797088220343e-02  2.7166877731648505e-02 -3.2164797088220343e-02  2.7166877731648505e-02 -6.4468483199363025e-01 -7.6328818540570120e-01
1.328828828828829e+00 -6.5434532668281153e-01 -7.5499893204554469e-01 -3.2139230339866133e-02  2.7854549567502183e-02 -3.2139230339866133e-02  2.7854549567502183e-02 -6.5434532668281153e-01 -7.5499893204554469e-01
1.330330330330330e+00 -6.6400239895875235e-01 -7.4649729587576796e-01 -3.2073357521363428e-02  2.8528953091333464e-02 -3.2073357521363428e-02  2.8528953091333464e-02 -6.6400239895875235e-01 -7.4649729587576796e-01
1.331831831831832e+00 -6.7365301495626440e-01 -7.3777901205795160e-01 -3.1966035527736726e-02  2.9187623743039515e-02 -3.1966035527736726e-02  2.9187623743039515e-02 -6.7365301495626440e-01 -7.3777901205795160e-01
1.333333333333333e+00 -6.8329399496388976e-01 -7.2883972379528983e-01 -3.1816152760163675e-02  2.9827938041944200e-02 -3.1816152760163675e-02  2.9827938041944200e-02 -6.8329399496388976e-01 -7.2883972379528983e-01
1.334834834834835e+00 -6.9292200604994625e-01 -7.1967497952756332e-01 -3.1622636028682663e-02  3.0447106008835306e-02 -3.1622636028682663e-02  3.0447106008835306e-02 -6.9292200604994625e-01 -7.1967497952756332e-01
1.336336336336337e+00 -7.0253355417192320e-01 -7.1028023001202367e-01 -3.1384458128454584e-02  3.1042163336532490e-02 -3.1384458128454584e-02  3.1042163336532490e-02 -7.0253355417192320e-01 -7.1028023001202367e-01
1.337837837837838e+00 -7.1212497572257327e-01 -7.0065082529087164e-01 -3.1100646146642166e-02  3.1609963312238219e-02 -3.1100646146642166e-02  3.1609963312238219e-02 -7.1212497572257327e-01 -7.0065082529087164e-01
1.339339339339339e+00 -7.2169242846137549e-01 -6.9078201154770047e-01 -3.0770290561740250e-02  3.2147168497063602e-02 -3.0770290561740250e-02  3.2147168497063602e-02 -7.2169242846137549e-01 -6.9078201154770047e-01
1.340840840840841e+00 -7.3123188177511411e-01 -6.8066892785707289e-01 -3.0392555202348223e-02  3.2650242170645605e-02 -3.0392555202348223e-02  3.2650242170645605e-02 -7.3123188177511411e-01 -6.8066892785707289e-01
1.342342342342342e+00 -7.4073910620590122e-01 -6.7030660283381704e-01 -2.9966688137987908e-02  3.3115439551752938e-02 -2.9966688137987908e-02  3.3115439551752938e-02 -7.4073910620590122e-01 -6.7030660283381704e-01
1.343843843843844e+00 -7.5020966217908758e-01 -6.5968995119135210e-01 -2.9492033580618006e-02  3.3538798809248524e-02 -2.9492033580618006e-02  3.3538798809248524e-02 -7.5020966217908758e-01 -6.5968995119135210e-01
1.345345345345345e+00 -7.5963888785693401e-01 -6.4881377022174780e-01 -2.8968044882059799e-02  3.3916131881844676e-02 -2.8968044882059799e-02  3.3916131881844676e-02 -7.5963888785693401e-01 -6.4881377022174780e-01
1.346846846846847e+00 -7.6902188603709909e-01 -6.3767273621425502e-01 -2.8394298719637535e-02  3.4243015129848224e-02 -2.8394298719637535e-02  3.4243015129848224e-02 -7.6902188603709909e-01 -6.3767273621425502e-01
1.348348348348348e+00 -7.7835351000721997e-01 -6.2626140083370219e-01 -2.7770510569976953e-02  3.4514779847614932e-02 -2.7770510569976953e-02  3.4514779847614932e-02 -7.7835351000721997e-01 -6.2626140083370219e-01
1.349849849849850e+00 -7.8762834825866701e-01 -6.1457418748595283e-01 -2.7096551579167509e-02  3.4726502671889870e-02 -2.7096551579167509e-02  3.4726502671889870e-02 -7.8762834825866701e-01 -6.1457418748595283e-01
1.351351351351351e+00 -7.9684070795369433e-01 -6.0260538770406913e-01 -2.6372466946346568e-02  3.4872995928692557e-02 -2.6372466946346568e-02  3.4872995928692557e-02 -7.9684070795369433e-01 -6.0260538770406913e-01
1.352852852852853e+00 -8.0598459703044967e-01 -5.9034915759687157e-01 -2.5598495947305740e-02  3.4948797970105139e-02 -2.5598495947305740e-02  3.4948797970105139e-02 -8.0598459703044967e-01 -5.9034915759687157e-01
1.354354354354354e+00 -8.1505370482005013e-01 -5.7779951441062216e-01 -2.4775093734912632e-02  3.4948163562411837e-02 -2.4775093734912632e-02  3.4948163562411837e-02 -8.1505370482005013e-01 -5.7779951441062216e-01
1.355855855855856e+00 -8.2404138103877311e-01 -5.6495033326540345e-01 -2.3902955064039649e-02  3.4865054398730062e-02 -2.3902955064039649e-02  3.4865054398730062e-02 -8.2404138103877311e-01 -5.6495033326540345e-01
1.357357357357358e+00 -8.3294061300658728e-01 -5.5179534414043263e-01 -2.2983040100276523e-02  3.4693129822797611e-02 -2.2983040100276523e-02  3.4693129822797611e-02 -8.3294061300658728e-01 -5.5179534414043263e-01
1.358858858858859e+00 -8.4174400093054613e-01 -5.3832812919711204e-01 -2.2016602483987381e-02  3.4425737866250736e-02 -2.2016602483987381e-02  3.4425737866250736e-02 -8.4174400093054613e-01 -5.3832812919711204e-01
1.360360360360360e+00 -8.5044373107832472e-01 -5.2454212054589766e-01 -2.1005219834201810e-02  3.4055906719803512e-02 -2.1005219834201810e-02  3.4055906719803512e-02 -8.5044373107832472e-01 -5.2454212054589766e-01
1.361861861861862e+00 -8.5903154665303327e-01 -5.1043059858293738e-01 -1.9950826890383362e-02  3.3576336779638047e-02 -1.9950826890383362e-02  3.3576336779638047e-02 -8.5903154665303327e-01 -5.1043059858293738e-01
1.363363363363363e+00 -8.6749871616597019e-01 -4.9598669104553256e-01 -1.8855751504184653e-02  3.2979393434415985e-02 -1.8855751504184653e-02  3.2979393434415985e-02 -8.6749871616597019e-01 -4.9598669104553256e-01
1.364864864864865e+00 -8.7583599908862819e-01 -4.8120337296231513e-01 -1.7722753707774902e-02  3.2257100786087636e-02 -1.7722753707774902e-02  3.2257100786087636e-02 -8.7583599908862819e-01 -4.8120337296231513e-01
1.366366366366367e+00 -8.8403360855013180e-01 -4.6607346770512237e-01 -1.6555068100030466e-02  3.1401136529665308e-02 -1.6555068100030466e-02  3.1401136529665308e-02 -8.8403360855013180e-01 -4.6607346770512237e-01
1.367867867867868e+00 -8.9208117083051985e-01 -4.5058964938527607e-01 -1.5356449806576513e-02  3.0402828253911805e-02 -1.5356449806576513e-02  3.0402828253911805e-02 -8.9208117083051985e-01 -4.5058964938527607e-01
1.369369369369370e+00 -8.9996768138522809e-01 -4.3474444687835834e-01 -1.4131224284031865e-02  2.9253151467149605e-02 -1.4131224284031865e-02  2.9253151467149605e-02 -8.9996768138522809e-01 -4.3474444687835834e-01
1.370870870870871e+00 -9.0768145712135551e-01 -4.1853024980926284e-01 -1.2884341252449534e-02  2.7942729700904292e-02 -1.2884341252449534e-02  2.7942729700904292e-02 -9.0768145712135551e-01 -4.1853024980926284e-01
1.372372372372372e+00 -9.1521008463307352e-01 -4.0193931688382872e-01 -1.1621433052261976e-02  2.6461837099634591e-02 -1.1621433052261976e-02  2.6461837099634591e-02 -9.1521008463307352e-01 -4.0193931688382872e-01
1.373873873873874e+00 -9.2254036409187679e-01 -3.8496378701626721e-01 -1.0348877732417890e-02  2.4800403968396331e-02 -1.0348877732417890e-02  2.4800403968396331e-02 -9.2254036409187679e-01 -3.8496378701626721e-01
1.375375375375375e+00 -9.2965824847868062e-01 -3.6759569377335055e-01 -9.0738671838664024e-03  2.2948025822855742e-02 -9.0738671838664024e-03  2.2948025822855742e-02 -9.2965824847868062e-01 -3.6759569377335055e-01
1.376876876876877e+00 -9.3654877784006929e-01 -3.4982698373826904e-01 -7.8044806360440888e-03  2.0893976568806309e-02 -7.8044806360440888e-03  2.0893976568806309e-02 -9.3654877784006929e-01 -3.4982698373826904e-01
1.378378378378379e+00 -9.4319600825122685e-01 -3.3164953949070453e-01 -6.5497638321490971e-03  1.8627226532435561e-02 -6.5497638321490971e-03  1.8627226532435561e-02 -9.4319600825122685e-01 -3.3164953949070453e-01
1.379879879879880e+00 -9.4958293517582948e-01 -3.1305520800555553e-01 -5.3198141899602870e-03  1.6136466169260680e-02 -5.3198141899602870e-03  1.6136466169260680e-02 -9.4958293517582948e-01 -3.1305520800555553e-01
1.381381381381382e+00 -9.5569141092966614e-01 -2.9403583539302841e-01 -4.1258722366914720e-03  1.3410136400308643e-02 -4.1258722366914720e-03  1.3410136400308643e-02 -9.5569141092966614e-01 -2.9403583539302841e-01
1.382882882882883e+00 -9.6150205598341032e-01 -2.7458330903838946e-01 -2.9804195761759878e-03  1.0436466660053857e-02 -2.9804195761759878e-03  1.0436466660053857e-02 -9.6150205598341032e-01 -2.7458330903838946e-01
1.384384384384384e+00 -9.6699416388356185e-01 -2.5468960835179988e-01 -1.8972836013434573e-03  7.2035218931936597e-03 -1.8972836013434573e-03  7.2035218931936597e-03 -9.6699416388356185e-01 -2.5468960835179988e-01
1.385885885885886e+00 -9.7214559963298386e-01 -2.3434686550900066e-01 -8.9174910055181975e-04  3.6992599077235260e-03 -8.9174910055181975e-04  3.6992599077235260e-03 -9.7214559963298386e-01 -2.3434686550900066e-01
1.387387387387387e+00 -9.7693269145903694e-01 -2.1354743775275245e-01  1.9323181863712496e-05 -8.8399318972516089e-05  1.9323181863712496e-05 -8.8399318972516089e-05 -9.7693269145903694e-01 -2.1354743775275245e-01
1.388888888888889e+00 -9.8133011601289888e-01 -1.9228399303371893e-01  8.1737108815053386e-04 -4.1714905755035701e-03  8.1737108815053386e-04 -4.1714905755035701e-03 -9.8133011601289888e-01 -1.9228399303371893e-01
1.390390390390390e+00 -9.8531077719565086e-01 -1.7054961099829757e-01  1.4819989040935908e-03 -8.5619045593140364e-03  1.4819989040935908e-03 -8.5619045593140364e-03 -9.8531077719565086e-01 -1.7054961099829757e-01
1.391891891891892e+00 -9.8884567900304576e-01 -1.4833790157883861e-01  1.9908389399052352e-03 -1.3271270945342372e-02  1.9908389399052352e-03 -1.3271270945342372e-02 -9.8884567900304576e-01 -1.4833790157883861e-01
1.393393393393394e+00 -9.9190379303066689e-01 -1.2564314370718385e-01  2.3194074965514205e-03 -1.8310820833764098e-02  2.3194074965514205e-03 -1.8310820833764098e-02 -9.9190379303066689e-01 -1.2564314370718385e-01
1.394894894894895e+00 -9.9445192159577800e-01 -1.0246044695268501e-01  2.4409561956215287e-03 -2.3691225750634308e-02  2.4409561956215287e-03 -2.3691225750634308e-02 -9.9445192159577800e-01 -1.0246044695268501e-01
1.396396396396397e+00 -9.9645455782389003e-01 -7.8785939175333192e-02  2.3263200446735910e-03 -2.9422410086568193e-02  2.3263200446735910e-03 -2.9422410086568193e-02 -9.9645455782389003e-01 -7.8785939175333192e-02
1.397897897897898e+00 -9.9787374453138844e-01 -5.4616983575677146e-02  1.9437640952604633e-03 -3.5513333568406906e-02  1.9437640952604633e-03 -3.5513333568406906e-02 -9.9787374453138844e-01 -5.4616983575677146e-02
1.399399399399399e+00 -9.9866893432590143e-01 -2.9952428805059186e-02  1.2588311434445637e-03 -4.1971740078310102e-02  1.2588311434445637e-03 -4.1971740078310102e-02 -9.9866893432590143e-01 -2.9952428805059186e-02
1.400900900900901e+00 -9.9879685406150120e-01 -4.7928960562984265e-03  2.3419363980997643e-04 -4.8803868879241374e-02  2.3419363980997643e-04 -4.8803868879241374e-02 -9.9879685406150120e-01 -4.7928960562984265e-03
1.402402402402402e+00 -9.9821137764389800e-01  2.0858892734142376e-02 -1.1704861638489016e-03 -5.6014124096638994e-02 -1.1704861638489016e-03 -5.6014124096638994e-02 -9.9821137764389800e-01  2.0858892734142376e-02
1.403903903903904e+00 -9.9686341220069141e-01  4.6997741304856282e-02 -2.9986827822377979e-03 -6.3604698170891746e-02 -2.9986827822377979e-03 -6.3604698170891746e-02 -9.9686341220069141e-01  4.6997741304856282e-02
1.405405405405406e+00 -9.9470080383113302e-01  7.3615555814279116e-02 -5.2971145284870305e-03 -7.1575144970237620e-02 -5.2971145284870305e-03 -7.1575144970237620e-02 -9.9470080383113302e-01  7.3615555814279116e-02
1.406906906906907e+00 -9.9166827054446649e-01  1.0070086774673777e-01 -8.1158233639456387e-03 -7.9921898385320295e-02 -8.1158233639456387e-03 -7.9921898385320295e-02 -9.9166827054446649e-01  1.0070086774673777e-01
1.408408408408409e+00 -9.8770737159576505e-01  1.2823829915806984e-01 -1.1508218317696106e-02 -8.8637732572473649e-02 -1.1508218317696106e-02 -8.8637732572473649e-02 -9.8770737159576505e-01  1.2823829915806984e-01
1.409909909909910e+00 -9.8275652423706794e-01  1.5620796706850434e-01 -1.5531071417687468e-02 -9.7711160644133793e-02 -1.5531071417687468e-02 -9.7711160644133793e-02 -9.8275652423706794e-01  1.5620796706850434e-01
1.411411411411411e+00 -9.7675108090841622e-01  1.8458482481042279e-01 -2.0244453067054871e-02 -1.0712576960730183e-01 -2.0244453067054871e-02 -1.0712576960730183e-01 -9.7675108090841622e-01  1.8458482481042279e-01
1.412912912912913e+00 -9.6962348207093585e-01  2.1333793960996220e-01 -2.5711591620377769e-02 -1.1685949082528965e-01 -2.5711591620377769e-02 -1.1685949082528965e-01 -9.6962348207093585e-01  2.1333793960996220e-01
1.414414414414414e+00 -9.6130350217945637e-01  2.4242970774043074e-01 -3.1998639618560934e-02 -1.2688380733947047e-01 -3.1998639618560934e-02 -1.2688380733947047e-01 -9.6130350217945637e-01  2.4242970774043074e-01
1.415915915915916e+00 -9.5171860861753532e-01  2.7181501135837294e-01 -3.9174326814651057e-02 -1.3716290216368079e-01 -3.9174326814651057e-02 -1.3716290216368079e-01 -9.5171860861753532e-01  2.7181501135837294e-01
1.417417417417418e+00 -9.4079445564306741e-01  3.0144032475451393e-01 -4.7309477897173220e-02 -1.4765275528838248e-01 -4.7309477897173220e-02 -1.4765275528838248e-01 -9.4079445564306741e-01  3.0144032475451393e-01
1.418918918918919e+00 -9.2845553733112007e-01  3.3124278235395960e-01 -5.6476370878554685e-02 -1.5830020173700945e-01 -5.6476370878554685e-02 -1.5830020173700945e-01 -9.2845553733112007e-01  3.3124278235395960e-01
1.420420420420420e+00 -9.1462602490080869e-01  3.6114922649893666e-01 -6.6747910716123821e-02 -1.6904196871899485e-01 -6.6747910716123821e-02 -1.6904196871899485e-01 -9.1462602490080869e-01  3.6114922649893666e-01
1.421921921921922e+00 -8.9923081434557117e-01  3.9107525992269387e-01 -7.8196592200631604e-02 -1.7980371680254698e-01 -7.8196592200631604e-02 -1.7980371680254698e-01 -8.9923081434557117e-01  3.9107525992269387e-01
1.423423423423423e+00 -8.8219680954023239e-01  4.2092433589027956e-01 -9.0893226893561857e-02 -1.9049911810092718e-01 -9.0893226893561857e-02 -1.9049911810092718e-01 -8.8219680954023239e-01  4.2092433589027956e-01
1.424924924924925e+00 -8.6345446348000388e-01  4.5058692815699103e-01 -1.0490541141356313e-01 -2.0102901364392778e-01 -1.0490541141356313e-01 -2.0102901364392778e-01 -8.6345446348000388e-01  4.5058692815699103e-01
1.426426426426427e+00 -8.4293959545102992e-01  4.7993983294766485e-01 -1.2029571922851383e-01 -2.1128070216258027e-01 -1.2029571922851383e-01 -2.1128070216258027e-01 -8.4293959545102992e-01  4.7993983294766485e-01
1.427927927927928e+00 -8.2059549413185617e-01  5.0884566566938716e-01 -1.3711960591141753e-01 -2.2112742302722604e-01 -1.3711960591141753e-01 -2.2112742302722604e-01 -8.2059549413185617e-01  5.0884566566938716e-01
1.429429429429430e+00 -7.9637530527947198e-01  5.3715262536554165e-01 -1.5542302916533940e-01 -2.3042810637810140e-01 -1.5542302916533940e-01 -2.3042810637810140e-01 -7.9637530527947198e-01  5.3715262536554165e-01
1.430930930930931e+00 -7.7024468724707762e-01  5.6469460904357072e-01 -1.7523980033085290e-01 -2.3902747261513796e-01 -1.7523980033085290e-01 -2.3902747261513796e-01 -7.7024468724707762e-01  5.6469460904357072e-01
1.432432432432432e+00 -7.4218469779411800e-01  5.9129176468468903e-01 -1.9658870387815677e-01 -2.4675657009251961e-01 -1.9658870387815677e-01 -2.4675657009251961e-01 -7.4218469779411800e-01  5.9129176468468903e-01
1.433933933933934e+00 -7.1219485149851858e-01  6.1675157438463279e-01 -2.1947044553878203e-01 -2.5343384250743339e-01 -2.1947044553878203e-01 -2.5343384250743339e-01 -7.1219485149851858e-01  6.1675157438463279e-01
1.435435435435435e+00 -6.8029625908597169e-01  6.4087055584465269e-01 -2.4386451772949333e-01 -2.5886681424539221e-01 -2.4386451772949333e-01 -2.5886681424539221e-01 -6.8029625908597169e-01  6.4087055584465269e-01
1.436936936936937e+00 -6.4653472934324518e-01  6.6343665938278928e-01 -2.6972610157157378e-01 -2.6285447089797948e-01 -2.6972610157157378e-01 -2.6285447089797948e-01 -6.4653472934324518e-01  6.6343665938278928e-01
1.438438438438439e+00 -6.1098368299651051e-01  6.8423241693138714e-01 -2.9698315609773507e-01 -2.6519039146711060e-01 -2.9698315609773507e-01 -2.6519039146711060e-01 -6.1098368299651051e-01  6.8423241693138714e-01
1.439939939939940e+00 -5.7374669892649610e-01  7.0303886772848656e-01 -3.2553387425117319e-01 -2.6566665701404119e-01 -3.2553387425117319e-01 -2.6566665701404119e-01 -5.7374669892649610e-01  7.0303886772848656e-01
1.441441441441442e+00 -5.3495949013848298e-01  7.1964024203984400e-01 -3.5524470823866305e-01 -2.6407851714221864e-01 -3.5524470823866305e-01 -2.6407851714221864e-01 -5.3495949013848298e-01  7.1964024203984400e-01
1.442942942942943e+00 -4.9479109442602964e-01  7.3382932999061401e-01 -3.8594917928212258e-01 -2.6022974144719979e-01 -3.8594917928212258e-01 -2.6022974144719979e-01 -4.9479109442602964e-01  7.3382932999061401e-01
1.444444444444444e+00 -4.5344406729331588e-01  7.4541339985771871e-01 -4.1744768419097084e-01 -2.5393852034033754e-01 -4.1744768419097084e-01 -2.5393852034033754e-01 -4.5344406729331588e-01  7.4541339985771871e-01
1.445945945945946e+00 -4.1115348660344475e-01  7.5422046334327997e-01 -4.4950848927898623e-01 -2.4504371282324083e-01 -4.4950848927898623e-01 -2.4504371282324083e-01 -4.1115348660344475e-01  7.5422046334327997e-01
1.447447447447447e+00 -3.6818462247114270e-01  7.6010562072332843e-01 -4.8187005810223826e-01 -2.3341117416509460e-01 -4.8187005810223826e-01 -2.3341117416509460e-01 -3.6818462247114270e-01  7.6010562072332843e-01
1.448948948948949e+00 -3.2482919277620892e-01  7.6295716420020865e-01 -5.1424479264087386e-01 -2.1893984186911750e-01 -5.1424479264087386e-01 -2.1893984186911750e-01 -3.2482919277620892e-01  7.6295716420020865e-01
1.450450450450451e+00 -2.8140021199160131e-01  7.6270208184326715e-01 -5.4632418023414375e-01 -2.0156722237139246e-01 -5.4632418023414375e-01 -2.0156722237139246e-01 -2.8140021199160131e-01  7.6270208184326715e-01
1.451951951951952e+00 -2.3822554299559479e-01  7.5931059520512079e-01 -5.7778523660663528e-01 -1.8127391161751258e-01 -5.7778523660663528e-01 -1.8127391161751258e-01 -2.3822554299559479e-01  7.5931059520512079e-01
1.453453453453454e+00 -1.9564036903622345e-01  7.5279938703078575e-01 -6.0829802782901066e-01 -1.5808680599205616e-01 -6.0829802782901066e-01 -1.5808680599205616e-01 -1.9564036903622345e-01  7.5279938703078575e-01
1.454954954954955e+00 -1.5397890438721243e-01  7.4323323389935481e-01 -6.3753395268984159e-01 -1.3208071849774683e-01 -6.3753395268984159e-01 -1.3208071849774683e-01 -1.5397890438721243e-01  7.4323323389935481e-01
1.456456456456457e+00 -1.1356574483041182e-01  7.3072485000812082e-01 -6.6517438436315024e-01 -1.0337820645003698e-01 -6.6517438436315024e-01 -1.0337820645003698e-01 -1.1356574483041182e-01  7.3072485000812082e-01
1.457957957957958e+00 -7.4707311276343696e-02  7.1543286550246177e-01 -6.9091921808385837e-01 -7.2147534144866854e-02 -6.9091921808385837e-01 -7.2147534144866854e-02 -7.4707311276343696e-02  7.1543286550246177e-01
1.459459459459460e+00 -3.7683853065966298e-02  6.9755799424351994e-01 -7.1449485831556037e-01 -3.8598825444400853e-02 -7.1449485831556037e-01 -3.8598825444400853e-02 -3.7683853065966298e-02  6.9755799424351994e-01
1.460960960960961e+00 -2.7424481213547151e-03  6.7733757728694721e-01 -7.3566120827419546e-01 -2.9785926046893008e-03 -7.3566120827419546e-01 -2.9785926046893008e-03 -2.7424481213547151e-03  6.7733757728694721e-01
1.462462462462462e+00  2.9908632736363877e-02  6.5503880457225894e-01 -7.5421729452398134e-01  3.4437056107022468e-02 -7.5421729452398134e-01  3.4437056107022468e-02  2.9908632736363877e-02  6.5503880457225894e-01
1.463963963963964e+00  6.0103932533662523e-02  6.3095100517886715e-01 -7.7000526191574403e-01  7.3350139603358067e-02 -7.7000526191574403e-01  7.3350139603358067e-02  6.0103932533662523e-02  6.3095100517886715e-01
1.465465465465466e+00  8.7723044277271109e-02  6.0537744678448768e-01 -7.8291259723008122e-01  1.1344901729795920e-01 -7.8291259723008122e-01  1.1344901729795920e-01  8.7723044277271109e-02  6.0537744678448768e-01
1.466966966966967e+00  1.1269106394571937e-01  5.7862709384583255e-01 -7.9287256904237957e-01  1.5441664299696223e-01 -7.9287256904237957e-01  1.5441664299696223e-01  1.1269106394571937e-01  5.7862709384583255e-01
1.468468468468469e+00  1.3497736865359797e-01  5.5100674339862354e-01 -7.9986299217019419e-01  1.9593844042743519e-01 -7.9986299217019419e-01  1.9593844042743519e-01  1.3497736865359797e-01  5.5100674339862354e-01
1.469969969969970e+00  1.5459292878753883e-01  5.2281389408206813e-01 -8.0390352555095967e-01  2.3770944476476075e-01 -8.0390352555095967e-01  2.3770944476476075e-01  1.5459292878753883e-01  5.2281389408206813e-01
1.471471471471472e+00  1.7158643490818670e-01  4.9433061825304131e-01 -8.0505178439517810e-01  2.7944044026448073e-01 -8.0505178439517810e-01  2.7944044026448073e-01  1.7158643490818670e-01  4.9433061825304131e-01
1.472972972972973e+00  1.8603956018848888e-01  4.6581861050826856e-01 -8.0339858743829518e-01  3.2086292065486433e-01 -8.0339858743829518e-01  3.2086292065486433e-01  1.8603956018848888e-01  4.6581861050826856e-01
1.474474474474474e+00  1.9806168799100635e-01  4.3751548973614685e-01 -7.9906266894790234e-01  3.6173279514712636e-01 -7.9906266894790234e-01  3.6173279514712636e-01  1.9806168799100635e-01  4.3751548973614685e-01
1.475975975975976e+00  2.0778441625728641e-01  4.0963234515936198e-01 -7.9218516721452059e-01  4.0183284958445620e-01 -7.9218516721452059e-01  4.0183284958445620e-01  2.0778441625728641e-01  4.0963234515936198e-01
1.477477477477478e+00  2.1535611229210780e-01  3.8235244604698132e-01 -7.8292416316476565e-01  4.4097404303776377e-01 -7.8292416316476565e-01  4.4097404303776377e-01  2.1535611229210780e-01  3.8235244604698132e-01
1.478978978978979e+00  2.2093674073980299e-01  3.5583098313424538e-01 -7.7144949195028878e-01  4.7899577180037400e-01 -7.7144949195028878e-01  4.7899577180037400e-01  2.2093674073980299e-01  3.5583098313424538e-01
1.480480480480481e+00  2.2469313123556572e-01  3.3019567776757969e-01 -7.5793799405203321e-01  5.1576526475864204e-01 -7.5793799405203321e-01  5.1576526475864204e-01  2.2469313123556572e-01  3.3019567776757969e-01
1.481981981981982e+00  2.2679479641694006e-01  3.0554808071048900e-01 -7.4256931664108794e-01  5.5117628820144149e-01 -7.4256931664108794e-01  5.5117628820144149e-01  2.2679479641694006e-01  3.0554808071048900e-01
1.483483483483484e+00  2.2741036018370159e-01  2.8196538333231475e-01 -7.2552232514023918e-01  5.8514733734887392e-01 -7.2552232514023918e-01  5.8514733734887392e-01  2.2741036018370159e-01  2.8196538333231475e-01
1.484984984984985e+00  2.2670461312495302e-01  2.5950257583457303e-01 -7.0697214195974234e-01  6.1761947995180488e-01 -7.0697214195974234e-01  6.1761947995180488e-01  2.2670461312495302e-01  2.5950257583457303e-01
1.486486486486487e+00  2.2483617821135532e-01  2.3819480648505734e-01 -6.8708779555923261e-01  6.4855399800202584e-01 -6.8708779555923261e-01  6.4855399800202584e-01  2.2483617821135532e-01  2.3819480648505734e-01
1.487987987987988e+00  2.2195574529546161e-01  2.1805981914526687e-01 -6.6603043843107390e-01  6.7792995028098846e-01 -6.6603043843107390e-01  6.7792995028098846e-01  2.2195574529546161e-01  2.1805981914526687e-01
1.489489489489490e+00  2.1820481694095017e-01  1.9910037093170005e-01 -6.4395207657674369e-01  7.0574175392357896e-01 -6.4395207657674369e-01  7.0574175392357896e-01  2.1820481694095017e-01  1.9910037093170005e-01
1.490990990990991e+00  2.1371489937065946e-01  1.8130655559651290e-01 -6.2099474431510038e-01  7.3199685943161030e-01 -6.2099474431510038e-01  7.3199685943161030e-01  2.1371489937065946e-01  1.8130655559651290e-01
1.492492492492492e+00  2.0860706941769144e-01  1.6465797978128605e-01 -5.9729005535372848e-01  7.5671357200650591e-01 -5.9729005535372848e-01  7.5671357200650591e-01  2.0860706941769144e-01  1.6465797978128605e-01
1.493993993993994e+00  2.0299184980600216e-01  1.4912575791468713e-01 -5.7295906249418305e-01  7.7991905345650725e-01 -5.7295906249418305e-01  7.7991905345650725e-01  2.0299184980600216e-01  1.4912575791468713e-01
1.495495495495496e+00  1.9696932952685314e-01  1.3467430688265286e-01 -5.4811236277979669e-01  8.0164752357839775e-01 -5.4811236277979669e-01  8.0164752357839775e-01  1.9696932952685314e-01  1.3467430688265286e-01
1.496996996996997e+00  1.9062947236935263e-01  1.2126293372658441e-01 -5.2285039118367460e-01  8.2193866778932090e-01 -5.2285039118367460e-01  8.2193866778932090e-01  1.9062947236935263e-01  1.2126293372658441e-01
1.498498498498499e+00  1.8405256389417113e-01  1.0884721877121366e-01 -4.9726385316282395e-01  8.4083624864025441e-01 -4.9726385316282395e-01  8.4083624864025441e-01  1.8405256389417113e-01  1.0884721877121366e-01
1.500000000000000e+00  1.7730975462421067e-01  9.7380203122438017e-02 -4.7143425388603133e-01  8.5838691230578790e-01 -4.7143425388603133e-01  8.5838691230578790e-01  1.7730975462421067e-01  9.7380203122438017e-02
1.501501501501502e+00  1.7046366448370792e-01  8.6813393832684327e-02 -4.4543448919799594e-01  8.7463917678946923e-01 -4.4543448919799594e-01  8.7463917678946923e-01  1.7046366448370792e-01  8.6813393832684327e-02
1.503003003003003e+00  1.6356902023723605e-01  7.7097602634461609e-02 -4.1932947009929894e-01  8.8964258598208612e-01 -4.1932947009929894e-01  8.8964258598208612e-01  1.6356902023723605e-01  7.7097602634461609e-02
1.504504504504504e+00  1.5667330368555168e-01  6.8183635387937147e-02 -3.9317675852391853e-01  9.0344701246623271e-01 -3.9317675852391853e-01  9.0344701246623271e-01  1.5667330368555168e-01  6.8183635387937147e-02
1.506006006006006e+00  1.4981739358932777e-01  6.0022849624106533e-02 -3.6702719740748302e-01  9.1610209172576063e-01 -3.6702719740748302e-01  9.1610209172576063e-01  1.4981739358932777e-01  6.0022849624106533e-02
1.507507507507508e+00  1.4303618870835749e-01  5.2567597084099034e-02 -3.4092552245255903e-01  9.2765677090022913e-01 -3.4092552245255903e-01  9.2765677090022913e-01  1.4303618870835749e-01  5.2567597084099034e-02
1.509009009009009e+00  1.3635920300221788e-01  4.5771567194605581e-02 -3.1491094665295682e-01  9.3815895618561995e-01 -3.1491094665295682e-01  9.3815895618561995e-01  1.3635920300221788e-01  4.5771567194605581e-02
1.510510510510511e+00  1.2981112700649111e-01  3.9590046165324473e-02 -2.8901771160390405e-01  9.4765524423662428e-01 -2.8901771160390405e-01  9.4765524423662428e-01  1.2981112700649111e-01  3.9590046165324473e-02
1.512012012012012e+00  1.2341235175737007e-01  3.3980104987402747e-02 -2.6327560198100547e-01  9.5619072433291685e-01 -2.6327560198100547e-01  9.5619072433291685e-01  1.2341235175737007e-01  3.3980104987402747e-02
1.513513513513514e+00  1.1717945347243489e-01  2.8900728155086684e-02 -2.3771042140271184e-01  9.6380883952812657e-01 -2.3771042140271184e-01  9.6380883952812657e-01  1.1717945347243489e-01  2.8900728155086684e-02
1.515015015015015e+00  1.1112563858952629e-01  2.4312893498433304e-02 -2.1234442928275404e-01  9.7055129643434290e-01 -2.1234442928275404e-01  9.7055129643434290e-01  1.1112563858952629e-01  2.4312893498433304e-02
1.516516516516517e+00  1.0526114979630022e-01  2.0179612150999320e-02 -1.8719673930663289e-01  9.7645801465805981e-01 -1.8719673930663289e-01  9.7645801465805981e-01  1.0526114979630022e-01  2.0179612150999320e-02
1.518018018018018e+00  9.9593634418845514e-02  1.6465936412501467e-02 -1.6228368089978154e-01  9.8156710816679660e-01 -1.6228368089978154e-01  9.8156710816679660e-01  9.9593634418845514e-02  1.6465936412501467e-02
1.519519519519520e+00  9.4128477038755085e-02  1.3138942118332782e-02 -1.3761912555350053e-01  9.8591489201262716e-01 -1.3761912555350053e-01  9.8591489201262716e-01  9.4128477038755085e-02  1.3138942118332782e-02
1.521021021021021e+00  8.8869098525110046e-02  1.0167691101486735e-02 -1.1321478018950554e-01  9.8953590886417331e-01 -1.1321478018950554e-01  9.8953590886417331e-01  8.8869098525110046e-02  1.0167691101486735e-02
1.522522522522523e+00  8.3817223843392866e-02  7.5231784270076672e-03 -8.9080449917373461e-02  9.9246297070271894e-01 -8.9080449917373461e-02  9.9246297070271894e-01  8.3817223843392866e-02  7.5231784270076672e-03
1.524024024024024e+00  7.8973121072403549e-02  5.1782682891871783e-03 -6.5224272606264344e-02  9.9472721182673829e-01 -6.5224272606264344e-02  9.9472721182673829e-01  7.8973121072403549e-02  5.1782682891871783e-03
1.525525525525526e+00  7.4335814050730351e-02  3.1076217791573837e-03 -4.1652927680827567e-02  9.9635814999020522e-01 -4.1652927680827567e-02  9.9635814999020522e-01  7.4335814050730351e-02  3.1076217791573837e-03
1.527027027027027e+00  6.9903271008890974e-02  1.2876191457513457e-03 -1.8371821484119921e-02  9.9738375308331106e-01 -1.8371821484119921e-02  9.9738375308331106e-01  6.9903271008890974e-02  1.2876191457513457e-03
1.528528528528529e+00  6.5672571439336885e-02 -3.0372132476165096e-04  4.6147485551091827e-03  9.9783050925980332e-01  4.6147485551091827e-03  9.9783050925980332e-01  6.5672571439336885e-02 -3.0372132476165096e-04
1.530030030030030e+00  6.1640053327889549e-02 -1.6868261043434336e-03  2.7303448843510769e-02  9.9772349883355727e-01  2.7303448843510769e-02  9.9772349883355727e-01  6.1640053327889549e-02 -1.6868261043434336e-03
1.531531531531532e+00  5.7801442727052225e-02 -2.8806495407799849e-03  4.9691781669574608e-02  9.9708646661731470e-01  4.9691781669574608e-02  9.9708646661731470e-01  5.7801442727052225e-02 -2.8806495407799849e-03
1.533033033033033e+00  5.4151967501969447e-02 -3.9027562374046258e-03  7.1777972563345227e-02  9.9594189366855568e-01  7.1777972563345227e-02  9.9594189366855568e-01  5.4151967501969447e-02 -3.9027562374046258e-03
1.534534534534534e+00  5.0686456929157658e-02 -4.7694018784870916e-03  9.3560871308770777e-02  9.9431106764917243e-01  9.3560871308770777e-02  9.9431106764917243e-01  5.0686456929157658e-02 -4.7694018784870916e-03
1.536036036036036e+00  4.7399428680531493e-02 -5.4956118842327643e-03  1.1503986509651715e-01  9.9221415120394463e-01  1.1503986509651715e-01  9.9221415120394463e-01  4.7399428680531493e-02 -5.4956118842327643e-03
1.537537537537538e+00  4.4285164583622839e-02 -6.0952574433291344e-03  1.3621480244739725e-01  9.8967024792539515e-01  1.3621480244739725e-01  9.8967024792539515e-01  4.4285164583622839e-02 -6.0952574433291344e-03
1.539039039039039e+00  4.1337776414891454e-02 -6.5811286042751155e-03  1.5708592667100352e-01  9.8669746560395943e-01  1.5708592667100352e-01  9.8669746560395943e-01  4.1337776414891454e-02 -6.5811286042751155e-03
1.540540540540541e+00  3.8551262857830039e-02 -6.9650042142986529e-03  1.7765381774985112e-01  9.8331297656812533e-01  1.7765381774985112e-01  9.8331297656812533e-01  3.8551262857830039e-02 -6.9650042142986529e-03
1.542042042042042e+00  3.5919558641674502e-02 -7.2577185807459338e-03  1.9791934165536179e-01  9.7953307500395181e-01  1.9791934165536179e-01  9.7953307500395181e-01  3.5919558641674502e-02 -7.2577185807459338e-03
1.543543543543544e+00  3.3436576770076991e-02 -7.4692247980866688e-03  2.1788360620876973e-01  9.7537323120961217e-01  2.1788360620876973e-01  9.7537323120961217e-01  3.3436576770076991e-02 -7.4692247980866688e-03
1.545045045045045e+00  3.1096244651940771e-02 -7.6086547371888042e-03  2.3754792269712677e-01  9.7084814279263965e-01  2.3754792269712677e-01  9.7084814279263965e-01  3.1096244651940771e-02 -7.6086547371888042e-03
1.546546546546547e+00  2.8892534858398634e-02 -7.6843757349086489e-03  2.5691377254282838e-01  9.6597178285746699e-01  2.5691377254282838e-01  9.6597178285746699e-01  2.8892534858398634e-02 -7.6843757349086489e-03
1.548048048048048e+00  2.6819491150178072e-02 -7.7040440535088702e-03  2.7598277840462948e-01  9.6075744526062823e-01  2.7598277840462948e-01  9.6075744526062823e-01  2.6819491150178072e-02 -7.7040440535088702e-03
1.549549549549550e+00  2.4871250347812204e-02 -7.6746552028102424e-03  2.9475667915969184e-01  9.5521778703309812e-01  2.9475667915969184e-01  9.5521778703309812e-01  2.4871250347812204e-02 -7.6746552028102424e-03
1.551051051051051e+00  2.3042060552691479e-02 -7.6025912348321491e-03  3.1323730828033403e-01  9.4936486808459841e-01  3.1323730828033403e-01  9.4936486808459841e-01  2.3042060552691479e-02 -7.6025912348321491e-03
1.552552552552553e+00  2.1326296169249970e-02 -7.4936651322649048e-03  3.3142657517647839e-01  9.4321018831508519e-01  3.3142657517647839e-01  9.4321018831508519e-01  2.1326296169249970e-02 -7.4936651322649048e-03
1.554054054054054e+00  1.9718470127040245e-02 -7.3531624195051918e-03  3.4932644912589011e-01  9.3676472226454932e-01  3.4932644912589011e-01  9.3676472226454932e-01  1.9718470127040245e-02 -7.3531624195051918e-03
1.555555555555556e+00  1.8213243655526359e-02 -7.1858801290455195e-03  3.6693894545966532e-01  9.3003895143551285e-01  3.6693894545966532e-01  9.3003895143551285e-01  1.8213243655526359e-02 -7.1858801290455195e-03
1.557057057057057e+00  1.6805433923504136e-02 -6.9961632574504738e-03  3.8426611371085356e-01  9.2304289442250631e-01  3.8426611371085356e-01  9.2304289442250631e-01  1.6805433923504136e-02 -6.9961632574504738e-03
1.558558558558559e+00  1.5490019818732702e-02 -6.7879388445733369e-03  4.0131002746977662e-01  9.1578613498155925e-01  4.0131002746977662e-01  9.1578613498155925e-01  1.5490019818732702e-02 -6.7879388445733369e-03
1.560060060060060e+00  1.4262146111114336e-02 -6.5647478075475602e-03  4.1807277572116686e-01  9.0827784816945023e-01  4.1807277572116686e-01  9.0827784816945023e-01  1.4262146111114336e-02 -6.5647478075475602e-03
1.561561561561562e+00  1.3117126214126619e-02 -6.3297746577968767e-03  4.3455645546631272e-01  9.0052682467831935e-01  4.3455645546631272e-01  9.0052682467831935e-01  1.3117126214126619e-02 -6.3297746577968767e-03
1.563063063063063e+00  1.2050443733888888e-02 -6.0858752251866308e-03  4.5076316545789363e-01  8.9254149348640621e-01  4.5076316545789363e-01  8.9254149348640621e-01  1.2050443733888888e-02 -6.0858752251866308e-03
1.564564564564565e+00  1.1057752972791825e-02 -5.8356025087183197e-03  4.6669500089697474e-01  8.8432994294003686e-01  4.6669500089697474e-01  8.8432994294003686e-01  1.1057752972791825e-02 -5.8356025087183197e-03
1.566066066066066e+00  1.0134878534760413e-02 -5.5812307680563117e-03  4.8235404896077561e-01  8.7589994037637942e-01  4.8235404896077561e-01  8.7589994037637942e-01  1.0134878534760413e-02 -5.5812307680563117e-03
1.567567567567568e+00  9.2778141616588726e-03 -5.3247779648332681e-03  4.9774238504657137e-01  8.6725895039034606e-01  4.9774238504657137e-01  8.6725895039034606e-01  9.2778141616588726e-03 -5.3247779648332681e-03
1.569069069069069e+00  8.4827209148202621e-03 -5.0680266572296229e-03  5.1286206963187075e-01  8.5841415184315673e-01  5.1286206963187075e-01  8.5841415184315673e-01  8.4827209148202621e-03 -5.0680266572296229e-03
1.570570570570571e+00  7.7459248019516036e-03 -4.8125434458565989e-03  5.2771514566406275e-01  8.4937245370409242e-01  5.2771514566406275e-01  8.4937245370409242e-01  7.7459248019516036e-03 -4.8125434458565989e-03
1.572072072072072e+00  7.0639139375383523e-03 -4.5596970635697421e-03  5.4230363640394952e-01  8.4014050981108479e-01  5.4230363640394952e-01  8.4014050981108479e-01  7.0639139375383523e-03 -4.5596970635697421e-03
1.573573573573574e+00  6.4333353141637307e-03 -4.3106751965620782e-03  5.5662954365767181e-01  8.3072473263021729e-01  5.5662954365767181e-01  8.3072473263021729e-01  6.4333353141637307e-03 -4.3106751965620782e-03
1.575075075075075e+00  5.8509912526811805e-03 -4.0665001189543609e-03  5.7069484634019674e-01  8.2113130608866869e-01  5.7069484634019674e-01  8.2113130608866869e-01  5.8509912526811805e-03 -4.0665001189543609e-03
1.576576576576577e+00  5.3138355908290682e-03 -3.8280432181698730e-03  5.8450149932118300e-01  8.1136619755060102e-01  5.8450149932118300e-01  8.1136619755060102e-01  5.3138355908290682e-03 -3.8280432181698730e-03
1.578078078078078e+00  4.8189696624838770e-03 -3.5960384836478581e-03  5.9805143251066839e-01  8.0143516900030876e-01  5.9805143251066839e-01  8.0143516900030876e-01  4.8189696624838770e-03 -3.5960384836478581e-03
1.579579579579580e+00  4.3636381132322426e-03 -3.3710950269433145e-03  6.1134655014791384e-01  7.9134378749250867e-01  6.1134655014791384e-01  7.9134378749250867e-01  4.3636381132322426e-03 -3.3710950269433145e-03
1.581081081081081e+00  3.9452245921787451e-03 -3.1537086969746996e-03  6.2438873026172614e-01  7.8109743492507033e-01  6.2438873026172614e-01  7.8109743492507033e-01  3.9452245921787451e-03 -3.1537086969746996e-03
1.582582582582583e+00  3.5612473548238457e-03 -2.9442728501277828e-03  6.3717982427511344e-01  7.7070131718546009e-01  6.3717982427511344e-01  7.7070131718546009e-01  3.5612473548238457e-03 -2.9442728501277828e-03
1.584084084084084e+00  3.2093548073517768e-03 -2.7430883310907718e-03  6.4972165673081883e-01  7.6016047271815457e-01  6.4972165673081883e-01  7.6016047271815457e-01  3.2093548073517768e-03 -2.7430883310907718e-03
1.585585585585586e+00  2.8873210187025209e-03 -2.5503727166868691e-03  6.6201602511783364e-01  7.4947978055683617e-01  6.6201602511783364e-01  7.4947978055683617e-01  2.8873210187025209e-03 -2.5503727166868691e-03
1.587087087087087e+00  2.5930412233032664e-03 -2.3662688715781963e-03  6.7406469978167005e-01  7.3866396786162936e-01  6.7406469978167005e-01  7.3866396786162936e-01  2.5930412233032664e-03 -2.3662688715781963e-03
1.588588588588589e+00  2.3245273342385074e-03 -2.1908528615242101e-03  6.8586942390389349e-01  7.2771761699862569e-01  6.8586942390389349e-01  7.2771761699862569e-01  2.3245273342385074e-03 -2.1908528615242101e-03
1.590090090090090e+00  2.0799034839128088e-03 -2.0241412668916730e-03  6.9743191353841549e-01  7.1664517219595791e-01  6.9743191353841549e-01  7.1664517219595791e-01  2.0799034839128088e-03 -2.0241412668916730e-03
1.591591591591592e+00  1.8574016068475402e-03 -1.8660979363102994e-03  7.0875385769414490e-01  7.0545094580802137e-01  7.0875385769414490e-01  7.0545094580802137e-01  1.8574016068475402e-03 -1.8660979363102994e-03
1.593093093093093e+00  1.6553570771322558e-03 -1.7166402177514715e-03  7.1983691845495712e-01  6.9413912421688417e-01  7.1983691845495712e-01  6.9413912421688417e-01  1.6553570771322558e-03 -1.7166402177514715e-03
1.594594594594595e+00  1.4722044111722600e-03 -1.5756447018534707e-03  7.3068273112963356e-01  6.8271377339767714e-01  7.3068273112963356e-01  6.8271377339767714e-01  1.4722044111722600e-03 -1.5756447018534707e-03
1.596096096096096e+00  1.3064730447249746e-03 -1.4429525100296337e-03  7.4129290442536377e-01  6.7117884417258822e-01  7.4129290442536377e-01  6.7117884417258822e-01  1.3064730447249746e-03 -1.4429525100296337e-03
1.597597597597598e+00  1.1567831917579082e-03 -1.3183741577538505e-03  7.5166902063967078e-01  6.5953817717613661e-01  7.5166902063967078e-01  6.5953817717613661e-01  1.1567831917579082e-03 -1.3183741577538505e-03
1.599099099099099e+00  1.0218417913814015e-03 -1.2016940214231266e-03  7.6181263586632453e-01  6.4779550755252779e-01  7.6181263586632453e-01  6.4779550755252779e-01  1.0218417913814015e-03 -1.2016940214231266e-03
1.600600600600601e+00  9.0043854797733640e-04 -1.0926744353287937e-03  7.7172528021162501e-01  6.3595446940429312e-01  7.7172528021162501e-01  6.3595446940429312e-01  9.0043854797733640e-04 -1.0926744353287937e-03
1.602102102102102e+00  7.9144206865600975e-04 -9.9105944353170862e-04  7.8140845801818359e-01  6.2401860000986609e-01  7.8140845801818359e-01  6.2401860000986609e-01  7.9144206865600975e-04 -9.9105944353170862e-04
1.603603603603604e+00  6.9379610129826480e-04 -8.9657822980853806e-04  7.9086364809372289e-01  6.1199134382631715e-01  7.9086364809372289e-01  6.1199134382631715e-01  6.9379610129826480e-04 -8.9657822980853806e-04
1.605105105105105e+00  6.0651587567811635e-04 -8.0894824732422673e-04  8.0009230394291309e-01  5.9987605629209251e-01  8.0009230394291309e-01  5.9987605629209251e-01  6.0651587567811635e-04 -8.0894824732422673e-04
1.606606606606606e+00  5.2868454949019669e-04 -7.2787806827014393e-04  8.0909585400078665e-01  5.8767600744364612e-01  8.0909585400078665e-01  5.8767600744364612e-01  5.2868454949019669e-04 -7.2787806827014393e-04
1.608108108108108e+00  4.5944976052137267e-04 -6.5306997238887042e-04  8.1787570186640901e-01  5.7539438535847631e-01  8.1787570186640901e-01  5.7539438535847631e-01  4.5944976052137267e-04 -6.5306997238887042e-04
1.609609609609610e+00  3.9802028569503102e-04 -5.8422229207531458e-04  8.2643322653586782e-01  5.6303429943626260e-01  8.2643322653586782e-01  5.6303429943626260e-01  3.9802028569503102e-04 -5.8422229207531458e-04
1.611111111111111e+00  3.4366280727229356e-04 -5.2103153059550192e-04  8.3476978263387847e-01  5.5059878352881708e-01  8.3476978263387847e-01  5.5059878352881708e-01  3.4366280727229356e-04 -5.2103153059550192e-04
1.612612612612613e+00  2.9569878610927479e-04 -4.6319426889312082e-04  8.4288670064341442e-01  5.3809079892873202e-01  8.4288670064341442e-01  5.3809079892873202e-01  2.9569878610927479e-04 -4.6319426889312082e-04
1.614114114114114e+00  2.5350144153505721e-04 -4.1040887545207375e-04  8.5078528713300883e-01  5.2551323722583854e-01  8.5078528713300883e-01  5.2551323722583854e-01  2.5350144153505721e-04 -4.1040887545207375e-04
1.615615615615616e+00  2.1649283712931277e-04 -3.6237703275146277e-04  8.5846682498142113e-01  5.1286892303985532e-01  8.5846682498142113e-01  5.1286892303985532e-01  2.1649283712931277e-04 -3.6237703275146277e-04
1.617117117117117e+00  1.8414107143125075e-04 -3.1880509297587675e-04  8.6593257359950893e-01  5.0016061663701039e-01  8.6593257359950893e-01  5.0016061663701039e-01  1.8414107143125075e-04 -3.1880509297587675e-04
1.618618618618619e+00  1.5595757240325655e-04 -2.7940527483197238e-04  8.7318376914922891e-01  4.8739101643780514e-01  8.7318376914922891e-01  4.8739101643780514e-01  1.5595757240325655e-04 -2.7940527483197238e-04
1.620120120120120e+00  1.3149449429421272e-04 -2.4389671256055994e-04  8.8022162475972165e-01  4.7456276142250342e-01  8.8022162475972165e-01  4.7456276142250342e-01  1.3149449429421272e-04 -2.4389671256055994e-04
1.621621621621622e+00  1.1034221539998871e-04 -2.1200636752541303e-04  8.8704733074047015e-01  4.6167843344053044e-01  8.8704733074047015e-01  4.6167843344053044e-01  1.1034221539998871e-04 -2.1200636752541303e-04
1.623123123123123e+00  9.2126935094758101e-05 -1.8346981209614761e-04  8.9366205479164385e-01  4.4874055942943125e-01  8.9366205479164385e-01  4.4874055942943125e-01  9.2126935094758101e-05 -1.8346981209614761e-04
1.624624624624625e+00  7.6508368406480012e-05 -1.5803189492386466e-04  9.0006694221161199e-01  4.3575161354861969e-01  9.0006694221161199e-01  4.3575161354861969e-01  7.6508368406480012e-05 -1.5803189492386466e-04
1.626126126126126e+00  6.3177536329286343e-05 -1.3544729613017178e-04  9.0626311610182575e-01  4.2271401923291196e-01  9.0626311610182575e-01  4.2271401923291196e-01  6.3177536329286343e-05 -1.3544729613017178e-04
1.627627627627628e+00  5.1854650002079879e-05 -1.1548098038929224e-04  9.1225167756902070e-01  4.0963015117022683e-01  9.1225167756902070e-01  4.0963015117022683e-01  5.1854650002079879e-05 -1.1548098038929224e-04
1.629129129129129e+00  4.2287086835382170e-05 -9.7908555378606492e-05  9.1803370592503042e-01  3.9650233720782735e-01  9.1803370592503042e-01  3.9650233720782735e-01  4.2287086835382170e-05 -9.7908555378606492e-05
1.630630630630631e+00  3.4247456634609180e-05 -8.2516542601272663e-05  9.2361025888410975e-01  3.8333286019094370e-01  9.2361025888410975e-01  3.8333286019094370e-01  3.4247456634609180e-05 -8.2516542601272663e-05
1.632132132132132e+00  2.7531755746147782e-05 -6.9102567143700184e-05  9.2898237275800732e-01  3.7012395973746354e-01  9.2898237275800732e-01  3.7012395973746354e-01  2.7531755746147782e-05 -6.9102567143700184e-05
1.633633633633634e+00  2.1957607241582159e-05 -5.7475472518977628e-05  9.3415106264887970e-01  3.5687783395217870e-01  9.3415106264887970e-01  3.5687783395217870e-01  2.1957607241582159e-05 -5.7475472518977628e-05
1.635135135135135e+00  1.7362585153654736e-05 -4.7455366362668439e-05  9.3911732264000458e-01  3.4359664108370097e-01  9.3911732264000458e-01  3.4359664108370097e-01  1.7362585153654736e-05 -4.7455366362668439e-05
1.636636636636637e+00  1.3602620783828335e-05 -3.8873602387610034e-05  9.4388212598450794e-01  3.3028250112711777e-01  9.4388212598450794e-01  3.3028250112711777e-01  1.3602620783828335e-05 -3.8873602387610034e-05
1.638138138138138e+00  1.0550489115036812e-05 -3.1572703669058808e-05  9.4844642529211787e-01  3.1693749737519283e-01  9.4844642529211787e-01  3.1693749737519283e-01  1.0550489115036812e-05 -3.1572703669058808e-05
1.639639639639640e+00  8.0943733827296632e-06 -2.5406232017353603e-05  9.5281115271402161e-01  3.0356367792077243e-01  9.5281115271402161e-01  3.0356367792077243e-01  8.0943733827296632e-06 -2.5406232017353603e-05
1.641141141141141e+00  6.1365058824851843e-06 -2.0238607902530795e-05  9.5697722012578479e-01  2.9016305711282914e-01  9.5697722012578479e-01  2.9016305711282914e-01  6.1365058824851843e-06 -2.0238607902530795e-05
1.642642642642643e+00  4.5918831222146742e-06 -1.5944885121928397e-05  9.6094551930856731e-01  2.7673761696861732e-01  9.6094551930856731e-01  2.7673761696861732e-01  4.5918831222146742e-06 -1.5944885121928397e-05
1.644144144144144e+00  3.3870534605452634e-06 -1.2410484146169718e-05  9.6471692212841442e-01  2.6328930854402594e-01  9.6471692212841442e-01  2.6328930854402594e-01  3.3870534605452634e-06 -1.2410484146169718e-05
1.645645645645646e+00  2.4589754101178232e-06 -9.5308878409487248e-06  9.6829228071389561e-01  2.4982005326435180e-01  9.6829228071389561e-01  2.4982005326435180e-01  2.4589754101178232e-06 -9.5308878409487248e-06
1.647147147147147e+00  1.7539448243817296e-06 -7.2113030396449025e-06  9.7167242763191264e-01  2.3633174421738695e-01  9.7167242763191264e-01  2.3633174421738695e-01  1.7539448243817296e-06 -7.2113030396449025e-06
1.648648648648649e+00  1.2265892287514422e-06 -5.3662912345927417e-06  9.7485817606179448e-01  2.2282624741078222e-01  9.7485817606179448e-01  2.2282624741078222e-01  1.2265892287514422e-06 -5.3662912345927417e-06
1.650150150150150e+00  8.3892760123384884e-07 -3.9193714617777167e-06  9.7785031996765814e-01  2.0930540299544190e-01  9.7785031996765814e-01  2.0930540299544190e-01  8.3892760123384884e-07 -3.9193714617777167e-06
1.651651651651652e+00  5.5949395344348896e-07 -2.8025982738636399e-06  9.8064963426900287e-01  1.9577102645670549e-01  9.8064963426900287e-01  1.9577102645670549e-01  5.5949395344348896e-07 -2.8025982738636399e-06
1.653153153153153e+00  3.6252310999457904e-07 -1.9561175291148612e-06  9.8325687500956949e-01  1.8222490977488170e-01  9.8325687500956949e-01  1.8222490977488170e-01  3.6252310999457904e-07 -1.9561175291148612e-06
1.654654654654655e+00  2.2719713228814734e-07 -1.3277025681911840e-06  9.8567277952446708e-01  1.6866882255679988e-01  9.8567277952446708e-01  1.6866882255679988e-01  2.2719713228814734e-07 -1.3277025681911840e-06
1.656156156156156e+00  1.3695088142046007e-07 -8.7227320621737015e-07  9.8789806660550927e-01  1.5510451313974877e-01  9.8789806660550927e-01  1.5510451313974877e-01  1.3695088142046007e-07 -8.7227320621737015e-07
1.657657657657658e+00  7.8835264114949288e-08 -5.5139983342488258e-07  9.8993343666477096e-01  1.4153370966935253e-01  9.8993343666477096e-01  1.4153370966935253e-01  7.8835264114949288e-08 -5.5139983342488258e-07
1.659159159159159e+00  4.2936754993456069e-08 -3.3279479334664175e-07  9.9177957189637911e-01  1.2795812115267666e-01  9.9177957189637911e-01  1.2795812115267666e-01  4.2936754993456069e-08 -3.3279479334664175e-07
1.660660660660661e+00  2.1851837986728672e-08 -1.8979309255573818e-07  9.9343713643650144e-01  1.1437943848791436e-01  9.9343713643650144e-01  1.1437943848791436e-01  2.1851837986728672e-08 -1.8979309255573818e-07
1.662162162162163e+00  1.0215059055849188e-08 -1.0082438966137694e-07  9.9490677652150283e-01  1.0079933547194961e-01  9.9490677652150283e-01  1.0079933547194961e-01  1.0215059055849188e-08 -1.0082438966137694e-07
1.663663663663664e+00  4.2794315263202022e-09 -4.8878113332658567e-08  9.9618912064430865e-01  8.7219469786981113e-02  9.9618912064430865e-01  8.7219469786981113e-02  4.2794315263202022e-09 -4.8878113332658567e-08
1.665165165165165e+00  1.5479840854177148e-09 -2.0963469018386152e-08  9.9728477970892693e-01  7.3641483967407606e-02  9.9728477970892693e-01  7.3641483967407606e-02  1.5479840854177148e-09 -2.0963469018386152e-08
1.666666666666667e+00  4.5528974728574182e-10 -7.5660113546687952e-09  9.9819434718313893e-01  6.0067006348150237e-02  9.9819434718313893e-01  6.0067006348150237e-02  4.5528974728574182e-10 -7.5660113546687952e-09
1.668168168168168e+00  9.7861751044002023e-11 -2.1023836582149981e-09  9.9891839924936365e-01  4.6497651995455788e-02  9.9891839924936365e-01  4.6497651995455788e-02  9.7861751044002023e-11 -2.1023836582149981e-09
1.669669669669670e+00  1.2349330767951341e-11 -3.7475701659131625e-10  9.9945749495367198e-01  3.2935023621321446e-02  9.9945749495367198e-01  3.2935023621321446e-02  1.2349330767951341e-11 -3.7475701659131625e-10
1.671171171171171e+00  5.1250258378944969e-13 -2.6438982784899167e-11  9.9981217635297637e-01  1.9380712482543704e-02  9.9981217635297637e-01  1.9380712482543704e-02  5.1250258378944969e-13 -2.6438982784899167e-11
1.672672672672673e+00  3.8211846156854816e-16 -6.5471617578630449e-14  9.9998296866041170e-01  5.8362992654084865e-03  9.9998296866041170e-01  5.8362992654084865e-03  3.8211846156854816e-16 -6.5471617578630449e-14
1.674174174174174e+00  2.0099681914583539e-15  2.6114087966348469e-13  9.9997038038888242e-01 -7.6966450429829403e-03  9.9997038038888242e-01 -7.6966450429829403e-03  2.0099681914583539e-15  2.6114087966348469e-13
1.675675675675676e+00  8.8216563512624526e-13  4.1569751814924074e-11  9.9977490349282350e-01 -2.1216558295794056e-02  9.9977490349282350e-01 -2.1216558295794056e-02  8.8216563512624526e-13  4.1569751814924074e-11
1.677177177177177e+00  1.6957138930013113e-11  4.8807584469431968e-10  9.9939701350817745e-01 -3.4721886339022068e-02  9.9939701350817745e-01 -3.4721886339022068e-02  1.6957138930013113e-11  4.8807584469431968e-10
1.678678678678679e+00  1.2160685379038133e-10  2.5194507191323875e-09  9.9883716969061287e-01 -4.8211082174607171e-02  9.9883716969061287e-01 -4.8211082174607171e-02  1.2160685379038133e-10  2.5194507191323875e-09
1.680180180180180e+00  5.3396005817926902e-10  8.6400906442906934e-09  9.9809581515202228e-01 -6.1682605133225502e-02  9.9809581515202228e-01 -6.1682605133225502e-02  5.3396005817926902e-10  8.6400906442906934e-09
1.681681681681682e+00  1.7464284632908720e-09  2.3178196864063303e-08  9.9717337699529629e-01 -7.5134920055863627e-02  9.9717337699529629e-01 -7.5134920055863627e-02  1.7464284632908720e-09  2.3178196864063303e-08
1.683183183183183e+00  4.6924036959809027e-09  5.2773497714386689e-08  9.9607026644743557e-01 -8.8566496483337157e-02  9.9607026644743557e-01 -8.8566496483337157e-02  4.6924036959809027e-09  5.2773497714386689e-08
1.684684684684685e+00  1.0953467681594551e-08  1.0685245999541788e-07  9.9478687899104157e-01 -1.0197580785290247e-01  9.9478687899104157e-01 -1.0197580785290247e-01  1.0953467681594551e-08  1.0685245999541788e-07
1.686186186186186e+00  2.3005502562077985e-08  1.9808984829856284e-07  9.9332359449417362e-01 -1.1536133070113526e-01  9.9332359449417362e-01 -1.1536133070113526e-01  2.3005502562077985e-08  1.9808984829856284e-07
1.687687687687688e+00  4.4503120439503642e-08  3.4285549834024156e-07  9.9168077733867199e-01 -1.2872154387224410e-01  9.9168077733867199e-01 -1.2872154387224410e-01  4.4503120439503642e-08  3.4285549834024156e-07
1.689189189189189e+00  8.0601866078131047e-08  5.6164517358069658e-07  9.8985877654693977e-01 -1.4205492773105038e-01  9.8985877654693977e-01 -1.4205492773105038e-01  8.0601866078131047e-08  5.6164517358069658e-07
1.690690690690691e+00  1.3831767716046446e-07  8.7949437360524171e-07  9.8785792590728028e-01 -1.5535996337979854e-01  9.8785792590728028e-01 -1.5535996337979854e-01  1.3831767716046446e-07  8.7949437360524171e-07
1.692192192192192e+00  2.2692311673236382e-07  1.3263739579759727e-06  9.8567854409775402e-01 -1.6863513187804371e-01  9.8567854409775402e-01 -1.6863513187804371e-01  2.2692311673236382e-07  1.3263739579759727e-06
1.693693693693694e+00  3.5837992104538057e-07  1.9375664405825928e-06  9.8332093480866389e-01 -1.8187891346478807e-01  9.8332093480866389e-01 -1.8187891346478807e-01  3.5837992104538057e-07  1.9375664405825928e-06
1.695195195195195e+00  5.4780743306414457e-07  2.7540217969719209e-06  9.8078538686371952e-01 -1.9508978678214731e-01  9.8078538686371952e-01 -1.9508978678214731e-01  5.4780743306414457e-07  2.7540217969719209e-06
1.696696696696697e+00  8.1398651740622532e-07  3.8226916107666611e-06  9.7807217433983096e-01 -2.0826622809971945e-01  9.7807217433983096e-01 -2.0826622809971945e-01  8.1398651740622532e-07  3.8226916107666611e-06
1.698198198198198e+00  1.1798985763543540e-06  5.1968403650456531e-06  9.7518155668570639e-01 -2.2140671053889102e-01  9.7518155668570639e-01 -2.2140671053889102e-01  1.1798985763543540e-06  5.1968403650456531e-06
1.699699699699700e+00  1.6732993087913278e-06  6.9363326605839846e-06  9.7211377883916672e-01 -2.3450970329631707e-01  9.7211377883916672e-01 -2.3450970329631707e-01  1.6732993087913278e-06  6.9363326605839846e-06
1.701201201201201e+00  2.3273268743633488e-06  9.1078951149820707e-06  9.6886907134332045e-01 -2.4757367086579687e-01  9.6886907134332045e-01 -2.4757367086579687e-01  2.3273268743633488e-06  9.1078951149820707e-06
1.702702702702703e+00  3.1811441438266356e-06  1.1785351665040427e-05  9.6544765046153813e-01 -2.6059707225769674e-01  9.6544765046153813e-01 -2.6059707225769674e-01  3.1811441438266356e-06  1.1785351665040427e-05
1.704204204204204e+00  4.2806147333073096e-06  1.5049830959240760e-05  9.6184971829134014e-01 -2.7357836021522380e-01  9.6184971829134014e-01 -2.7357836021522380e-01  4.2806147333073096e-06  1.5049830959240760e-05
1.705705705705706e+00  5.6790125349562469e-06  1.8989944487604683e-05  9.5807546287716727e-01 -2.8651598042663573e-01  9.5807546287716727e-01 -2.8651598042663573e-01  5.6790125349562469e-06  1.8989944487604683e-05
1.707207207207207e+00  7.4377644692599027e-06  2.3701934052991554e-05  9.5412505832208994e-01 -2.9940837073263554e-01  9.5412505832208994e-01 -2.9940837073263554e-01  7.4377644692599027e-06  2.3701934052991554e-05
1.708708708708709e+00  9.6272261947819798e-06  2.9289787140278007e-05  9.4999866489845985e-01 -3.1225396032808295e-01  9.4999866489845985e-01 -3.1225396032808295e-01  9.6272261947819798e-06  2.9289787140278007e-05
1.710210210210210e+00  1.2327490519381971e-05  3.5865318688299122e-05  9.4569642915752716e-01 -3.2505116895716274e-01  9.4569642915752716e-01 -3.2505116895716274e-01  1.2327490519381971e-05  3.5865318688299122e-05
1.711711711711712e+00  1.5629228262918437e-05  4.3548217713921676e-05  9.4121848403801300e-01 -3.3779840610113959e-01  9.4121848403801300e-01 -3.3779840610113959e-01  1.5629228262918437e-05  4.3548217713921676e-05
1.713213213213213e+00  1.9634561324677697e-05  5.2466057177202069e-05  9.3656494897366749e-01 -3.5049407015775624e-01  9.3656494897366749e-01 -3.5049407015775624e-01  1.9634561324677697e-05  5.2466057177202069e-05
1.714714714714715e+00  2.4457967709528917e-05  6.2754265412385906e-05  9.3173592999979660e-01 -3.6313654761139380e-01  9.3173592999979660e-01 -3.6313654761139380e-01  2.4457967709528917e-05  6.2754265412385906e-05
1.716216216216216e+00  3.0227218264605283e-05  7.4556057380393171e-05  9.2673151985874935e-01 -3.7572421219293939e-01  9.2673151985874935e-01 -3.7572421219293939e-01  3.0227218264605283e-05  7.4556057380393171e-05
1.717717717717718e+00  3.7084344873147190e-05  8.8022323924745105e-05  9.2155179810433152e-01 -3.8825542402843244e-01  9.2155179810433152e-01 -3.8825542402843244e-01  3.7084344873147190e-05  8.8022323924745105e-05
1.719219219219219e+00  4.5186639843744534e-05  1.0331147713432927e-04  9.1619683120519624e-01 -4.0072852877536203e-01  9.1619683120519624e-01 -4.0072852877536203e-01  4.5186639843744534e-05  1.0331147713432927e-04
1.720720720720721e+00  5.4707686221378877e-05  1.2058924983272335e-04  9.1066667264710299e-01 -4.1314185674555454e-01  9.1066667264710299e-01 -4.1314185674555454e-01  5.4707686221378877e-05  1.2058924983272335e-04
1.722222222222223e+00  6.5838418731341093e-05  1.4002844712532295e-04  9.0496136303405705e-01 -4.2549372201347974e-01  9.0496136303405705e-01 -4.2549372201347974e-01  6.5838418731341093e-05  1.4002844712532295e-04
1.723723723723724e+00  7.8788215047581825e-05  1.6180864784092852e-04  8.9908093018833157e-01 -4.3778242150874952e-01  8.9908093018833157e-01 -4.3778242150874952e-01  7.8788215047581825e-05  1.6180864784092852e-04
1.725225225225225e+00  9.3786017053644222e-05  1.8611585360489073e-04  8.9302538924927743e-01 -4.5000623409154406e-01  8.9302538924927743e-01 -4.5000623409154406e-01  9.3786017053644222e-05  1.8611585360489073e-04
1.726726726726727e+00  1.1108148173633659e-04  2.1314208317524275e-04  8.8679474277090309e-01 -4.6216341960960650e-01  8.8679474277090309e-01 -4.6216341960960650e-01  1.1108148173633659e-04  2.1314208317524275e-04
1.728228228228228e+00  1.3094616131943112e-04  2.4308490956132396e-04  8.8038898081826045e-01 -4.7425221793537309e-01  8.8038898081826045e-01 -4.7425221793537309e-01  1.3094616131943112e-04  2.4308490956132396e-04
1.729729729729730e+00  1.5367471220664183e-04  2.7614693732608498e-04  8.7380808106247498e-01 -4.8627084798173270e-01  8.7380808106247498e-01 -4.8627084798173270e-01  1.5367471220664183e-04  2.7614693732608498e-04
1.731231231231231e+00  1.7958613225977564e-04  3.1253521734881214e-04  8.6705200887453471e-01 -4.9821750669481207e-01  8.6705200887453471e-01 -4.9821750669481207e-01  1.7958613225977564e-04  3.1253521734881214e-04
1.732732732732733e+00  2.0902502588802550e-04  3.5246059619242222e-04  8.6012071741772700e-01 -5.1009036802206031e-01  8.6012071741772700e-01 -5.1009036802206031e-01  2.0902502588802550e-04  3.5246059619242222e-04
1.734234234234235e+00  2.4236289636884653e-04  3.9613699708121805e-04  8.5301414773873652e-01 -5.2188758185385198e-01  8.5301414773873652e-01 -5.2188758185385198e-01  2.4236289636884653e-04  3.9613699708121805e-04
1.735735735735736e+00  2.7999946475702780e-04  4.4378062934679181e-04  8.4573222885743715e-01 -5.3360727293664723e-01  8.4573222885743715e-01 -5.3360727293664723e-01  2.7999946475702780e-04  4.4378062934679181e-04
1.737237237237237e+00  3.2236401466859902e-04  4.9560912304599705e-04  8.3827487785537813e-01 -5.4524753975565809e-01  8.3827487785537813e-01 -5.4524753975565809e-01  3.2236401466859902e-04  4.9560912304599705e-04
1.738738738738739e+00  3.6991676214679633e-04  5.5184058529057821e-04  8.3064199996301757e-01 -5.5680645338483559e-01  8.3064199996301757e-01 -5.5680645338483559e-01  3.6991676214679633e-04  5.5184058529057821e-04
1.740240240240240e+00  4.2315024972982608e-04  6.1269257465629810e-04  8.2283348864581562e-01 -5.6828205630182560e-01  8.2283348864581562e-01 -5.6828205630182560e-01  4.2315024972982608e-04  6.1269257465629810e-04
1.741741741741742e+00  4.8259076374208143e-04  6.7838098985684311e-04  8.1484922568924201e-01 -5.7967236116536680e-01  8.1484922568924201e-01 -5.7967236116536680e-01  4.8259076374208143e-04  6.7838098985684311e-04
1.743243243243243e+00  5.4879977372274623e-04  7.4911886867687924e-04  8.0668908128291150e-01 -5.9097534955247322e-01  8.0668908128291150e-01 -5.9097534955247322e-01  5.4879977372274623e-04  7.4911886867687924e-04
1.744744744744745e+00  6.2237539278627073e-04  8.2511509295684737e-04  7.9835291410402709e-01 -6.0218897065253851e-01  7.9835291410402709e-01 -6.0218897065253851e-01  6.2237539278627073e-04  8.2511509295684737e-04
1.746246246246246e+00  7.0395385757660749e-04  9.0657299520863113e-04  7.8984057140042840e-01 -6.1331113991531105e-01  7.8984057140042840e-01 -6.1331113991531105e-01  7.0395385757660749e-04  9.0657299520863113e-04
1.747747747747748e+00  7.9421102633132890e-04  9.9368886221708305e-04  7.8115188907354083e-01 -6.2433973764940898e-01  7.8115188907354083e-01 -6.2433973764940898e-01  7.9421102633132890e-04  9.9368886221708305e-04
1.749249249249249e+00  8.9386389341214543e-04  1.0866503307475051e-03  7.7228669176171394e-01 -6.3527260756792059e-01  7.7228669176171394e-01 -6.3527260756792059e-01  8.9386389341214543e-04  1.0866503307475051e-03
1.750750750750751e+00  1.0036721184797852e-03  1.1856346702280539e-03  7.6324479292441760e-01 -6.4610755527735020e-01  7.6324479292441760e-01 -6.4610755527735020e-01  1.0036721184797852e-03  1.1856346702280539e-03
1.752252252252252e+00  1.1244395682982440e-03  1.2908069470164518e-03  7.5402599492795597e-01 -6.5684234670580732e-01  7.5402599492795597e-01 -6.5684234670580732e-01  1.1244395682982440e-03  1.2908069470164518e-03
1.753753753753754e+00  1.2570158689385656e-03  1.4023180645829762e-03  7.4463008913345674e-01 -6.6747470646628682e-01  7.4463008913345674e-01 -6.6747470646628682e-01  1.2570158689385656e-03  1.4023180645829762e-03
1.755255255255255e+00  1.4022979659169079e-03  1.5203026736516597e-03  7.3505685598804693e-01 -6.7800231615029805e-01  7.3505685598804693e-01 -6.7800231615029805e-01  1.4022979659169079e-03  1.5203026736516597e-03
1.756756756756757e+00  1.5612316895433900e-03  1.6448769460358833e-03  7.2530606512028406e-01 -6.8842281254704041e-01  7.2530606512028406e-01 -6.8842281254704041e-01  1.5612316895433900e-03  1.6448769460358833e-03
1.758258258258258e+00  1.7348133224751713e-03  1.7761362055843323e-03  7.1537747544111496e-01 -6.9873378578283540e-01  7.1537747544111496e-01 -6.9873378578283540e-01  1.7348133224751713e-03  1.7761362055843323e-03
1.759759759759760e+00  1.9240911661532432e-03  1.9141524093129246e-03  7.0527083525185674e-01 -7.0893277737518678e-01  7.0527083525185674e-01 -7.0893277737518678e-01  1.9240911661532432e-03  1.9141524093129246e-03
1.761261261261261e+00  2.1301671024610792e-03  2.0589714714443711e-03  6.9498588236090098e-01 -7.1901727819548122e-01  6.9498588236090098e-01 -7.1901727819548122e-01  2.1301671024610792e-03  2.0589714714443711e-03
1.762762762762763e+00  2.3541981465687776e-03  2.2106104227053113e-03  6.8452234421119784e-01 -7.2898472633399891e-01  6.8452234421119784e-01 -7.2898472633399891e-01  2.3541981465687776e-03  2.2106104227053113e-03
1.764264264264264e+00  2.5973979865084452e-03  2.3690543968348304e-03  6.7387993802079404e-01 -7.3883250486024121e-01  6.7387993802079404e-01 -7.3883250486024121e-01  2.5973979865084452e-03  2.3690543968348304e-03
1.765765765765766e+00  2.8610385045791092e-03  2.5342534358526259e-03  6.6305837093911935e-01 -7.4855793947146365e-01  6.6305837093911935e-01 -7.4855793947146365e-01  2.8610385045791092e-03  2.5342534358526259e-03
1.767267267267267e+00  3.1464512751755210e-03  2.7061191051995794e-03  6.5205734022209827e-01 -7.5815829602151497e-01  6.5205734022209827e-01 -7.5815829602151497e-01  3.1464512751755210e-03  2.7061191051995794e-03
1.768768768768769e+00  3.4550290330917803e-03  2.8845209094159286e-03  6.4087653342960882e-01 -7.6763077792175349e-01  6.4087653342960882e-01 -7.6763077792175349e-01  3.4550290330917803e-03  2.8845209094159286e-03
1.770270270270270e+00  3.7882271057481059e-03  3.0692824985491590e-03  6.2951562864926536e-01 -7.7697252340521572e-01  6.2951562864926536e-01 -7.7697252340521572e-01  3.7882271057481059e-03  3.0692824985491590e-03
1.771771771771772e+00  4.1475648021297726e-03  3.2601776549927527e-03  6.1797429475114307e-01 -7.8618060264464606e-01  6.1797429475114307e-01 -7.8618060264464606e-01  4.1475648021297726e-03  3.2601776549927527e-03
1.773273273273273e+00  4.5346267504992920e-03  3.4569260499414784e-03  6.0625219167863920e-01 -7.9525201471443707e-01  6.0625219167863920e-01 -7.9525201471443707e-01  4.5346267504992920e-03  3.4569260499414784e-03
1.774774774774775e+00  4.9510641761496216e-03  3.6591887581180491e-03  5.9434897078128435e-01 -8.0418368438583898e-01  5.9434897078128435e-01 -8.0418368438583898e-01  4.9510641761496216e-03  3.6591887581180491e-03
1.776276276276276e+00  5.3985961095876023e-03  3.8665635188703191e-03  5.8226427519634605e-01 -8.1297245874425428e-01  5.8226427519634605e-01 -8.1297245874425428e-01  5.3985961095876023e-03  3.8665635188703191e-03
1.777777777777778e+00  5.8790105145746750e-03  4.0785797311630907e-03  5.6999774028653205e-01 -8.2161510361664880e-01  5.6999774028653205e-01 -8.2161510361664880e-01  5.8790105145746750e-03  4.0785797311630907e-03
1.779279279279279e+00  6.3941653243942877e-03  4.2946931693983057e-03  5.5754899414250958e-01 -8.3010829979651835e-01  5.5754899414250958e-01 -8.3010829979651835e-01  6.3941653243942877e-03  4.2946931693983057e-03
1.780780780780781e+00  6.9459893735542150e-03  4.5142804063871564e-03  5.4491765815964921e-01 -8.3844863905300782e-01  5.4491765815964921e-01 -8.3844863905300782e-01  6.9459893735542150e-03  4.5142804063871564e-03
1.782282282282282e+00  7.5364832108476276e-03  4.7366329291697942e-03  5.3210334769984691e-01 -8.4663261991015049e-01  5.3210334769984691e-01 -8.4663261991015049e-01  7.5364832108476276e-03  4.7366329291697942e-03
1.783783783783784e+00  8.1677197783006465e-03  4.9609509327467318e-03  5.1910567285043729e-01 -8.5465664318132462e-01  5.1910567285043729e-01 -8.5465664318132462e-01  8.1677197783006465e-03  4.9609509327467318e-03
1.785285285285285e+00  8.8418449389792621e-03  5.1863367761339771e-03  5.0592423929380437e-01 -8.6251700724328351e-01  5.0592423929380437e-01 -8.6251700724328351e-01  8.8418449389792621e-03  5.1863367761339771e-03
1.786786786786787e+00  9.5610778349399465e-03  5.4117880845077843e-03  4.9255864930278281e-01 -8.7020990303339374e-01  4.9255864930278281e-01 -8.7020990303339374e-01  9.5610778349399465e-03  5.4117880845077843e-03
1.788288288288288e+00  1.0327711054728135e-02  5.6361904805492732e-03  4.7900850287888008e-01 -8.7773140875268418e-01  4.7900850287888008e-01 -8.7773140875268418e-01  1.0327711054728135e-02  5.6361904805492732e-03
1.789789789789790e+00  1.1144110587799958e-02  5.8583099274666746e-03  4.6527339905218479e-01 -8.8507748425684885e-01  4.6527339905218479e-01 -8.8507748425684885e-01  1.1144110587799958e-02  5.8583099274666746e-03
1.791291291291291e+00  1.2012715540952321e-02  6.0767846655297476e-03  4.5135293736418758e-01 -8.9224396511614634e-01  4.5135293736418758e-01 -8.9224396511614634e-01  1.2012715540952321e-02  6.0767846655297476e-03
1.792792792792793e+00  1.2936037589411892e-02  6.2901167233695033e-03  4.3724671955700706e-01 -8.9922655632478232e-01  4.3724671955700706e-01 -8.9922655632478232e-01  1.2936037589411892e-02  6.2901167233695033e-03
1.794294294294295e+00  1.3916660132468419e-02  6.4966629847125800e-03  4.2295435149533012e-01 -9.0602082563922726e-01  4.2295435149533012e-01 -9.0602082563922726e-01  1.3916660132468419e-02  6.4966629847125800e-03
1.795795795795796e+00  1.4957237120585795e-02  6.6946257907239308e-03  4.0847544535021174e-01 -9.1262219652449406e-01  4.0847544535021174e-01 -9.1262219652449406e-01  1.4957237120585795e-02  6.6946257907239308e-03
1.797297297297297e+00  1.6060491517617962e-02  6.8820430576770142e-03  3.9380962207722348e-01 -9.1902594068664112e-01  3.9380962207722348e-01 -9.1902594068664112e-01  1.6060491517617962e-02  6.8820430576770142e-03
1.798798798798799e+00  1.7229213358168637e-02  7.0567778893217258e-03  3.7895651422496857e-01 -9.2522717016921840e-01  3.7895651422496857e-01 -9.2522717016921840e-01  1.7229213358168637e-02  7.0567778893217258e-03
1.800300300300300e+00  1.8466257356181123e-02  7.2165076630780296e-03  3.6391576911396550e-01 -9.3122082899095149e-01  3.6391576911396550e-01 -9.3122082899095149e-01  1.8466257356181123e-02  7.2165076630780296e-03
1.801801801801802e+00  1.9774540016516459e-02  7.3587125690824616e-03  3.4868705243017117e-01 -9.3700168430159603e-01  3.4868705243017117e-01 -9.3700168430159603e-01  1.9774540016516459e-02  7.3587125690824616e-03
1.803303303303303e+00  2.1157036196536423e-02  7.4806635811904857e-03  3.3327005228224876e-01 -9.4256431703282328e-01  3.3327005228224876e-01 -9.4256431703282328e-01  2.1157036196536423e-02  7.4806635811904857e-03
1.804804804804805e+00  2.2616775059523461e-02  7.5794098393266660e-03  3.1766448377685169e-01 -9.4790311202104771e-01  3.1766448377685169e-01 -9.4790311202104771e-01  2.2616775059523461e-02  7.5794098393266660e-03
1.806306306306307e+00  2.4156835356081763e-02  7.6517654231181998e-03  3.0187009417189786e-01 -9.5301224757929814e-01  3.0187009417189786e-01 -9.5301224757929814e-01  2.4156835356081763e-02  7.6517654231181998e-03
1.807807807807808e+00  2.5780339963482807e-02  7.6942954976129815e-03  2.8588666867411894e-01 -9.5788568449611089e-01  2.8588666867411894e-01 -9.5788568449611089e-01  2.5780339963482807e-02  7.6942954976129815e-03
1.809309309309310e+00  2.7490449606135420e-02  7.7033018131105468e-03  2.6971403695392204e-01 -9.6251715444019281e-01  2.6971403695392204e-01 -9.6251715444019281e-01  2.7490449606135420e-02  7.7033018131105468e-03
1.810810810810811e+00  2.9290355673006575e-02  7.6748075428204826e-03  2.5335208045813801e-01 -9.6690014775118538e-01  2.5335208045813801e-01 -9.6690014775118538e-01  2.9290355673006575e-02  7.6748075428204826e-03
1.812312312312312e+00  3.1183272039773523e-02  7.6045414442618559e-03  2.3680074060924267e-01 -9.7102790059876121e-01  2.3680074060924267e-01 -9.7102790059876121e-01  3.1183272039773523e-02  7.6045414442618559e-03
1.813813813813814e+00  3.3172425794803707e-02  7.4879213331610593e-03  2.2006002798857965e-01 -9.7489338149495364e-01  2.2006002798857965e-01 -9.7489338149495364e-01  3.3172425794803707e-02  7.4879213331610593e-03
1.815315315315315e+00  3.5261046758585539e-02  7.3200368621623426e-03  2.0313003261054396e-01 -9.7848927714792466e-01  2.0313003261054396e-01 -9.7848927714792466e-01  3.5261046758585539e-02  7.3200368621623426e-03
1.816816816816817e+00  3.7452355676025187e-02  7.0956316011039191e-03  1.8601093540519886e-01 -9.8180797764949057e-01  1.8601093540519886e-01 -9.8180797764949057e-01  3.7452355676025187e-02  7.0956316011039191e-03
1.818318318318318e+00  3.9749550949984488e-02  6.8090844210419348e-03  1.6870302103783386e-01 -9.8484156099412012e-01  1.6870302103783386e-01 -9.8484156099412012e-01  3.9749550949984488e-02  6.8090844210419348e-03
1.819819819819820e+00  4.2155793772577686e-02  6.4543901908238385e-03  1.5120669220611826e-01 -9.8758177693331239e-01  1.5120669220611826e-01 -9.8758177693331239e-01  4.2155793772577686e-02  6.4543901908238385e-03
1.821321321321322e+00  4.4674191497983691e-02  6.0251398029810364e-03  1.3352248556838830e-01 -9.9002003017716822e-01  1.3352248556838830e-01 -9.9002003017716822e-01  4.4674191497983691e-02  6.0251398029810364e-03
1.822822822822823e+00  4.7307779086961640e-02  5.5144995552726490e-03  1.1565108947037761e-01 -9.9214736296420891e-01  1.1565108947037761e-01 -9.9214736296420891e-01  4.7307779086961640e-02  5.5144995552726490e-03
1.824324324324325e+00  5.0059498438729547e-02  4.9151899255865817e-03  9.7593363652455301e-02 -9.9395443703172992e-01  9.7593363652455301e-02 -9.9395443703172992e-01  5.0059498438729547e-02  4.9151899255865817e-03
1.825825825825826e+00  5.2932175410567349e-02  4.2194637913921772e-03  7.9350361134990111e-02 -9.9543151503223304e-01  7.9350361134990111e-02 -9.9543151503223304e-01  5.2932175410567349e-02  4.2194637913921772e-03
1.827327327327327e+00  5.5928494309347307e-02  3.4190841608270094e-03  6.0923352495776961e-02 -9.9656844145721712e-01  6.0923352495776961e-02 -9.9656844145721712e-01  5.5928494309347307e-02  3.4190841608270094e-03
1.828828828828829e+00  5.9050969622348681e-02  2.5053015011642392e-03  4.2313852770678340e-02 -9.9735462314803069e-01  4.2313852770678340e-02 -9.9735462314803069e-01  5.9050969622348681e-02  2.5053015011642392e-03
1.830330330330330e+00  6.2301914737186333e-02  1.4688307722109844e-03  2.3523651226372178e-02 -9.9777900949520060e-01  2.3523651226372178e-02 -9.9777900949520060e-01  6.2301914737186333e-02  1.4688307722109844e-03
1.831831831831832e+00  6.5683407382809825e-02  2.9982829758084568e-04  4.5548442722354032e-03 -9.9783007245283828e-01  4.5548442722354032e-03 -9.9783007245283828e-01  6.5683407382809825e-02  2.9982829758084568e-04
1.833333333333334e+00  6.9197251505306021e-02 -1.0121313637589504e-03 -1.4590128203010866e-02 -9.9749578652405069e-01 -1.4590128203010866e-02 -9.9749578652405069e-01  6.9197251505306021e-02 -1.0121313637589504e-03
1.834834834834835e+00  7.2844935274172420e-02 -2.4780783492294413e-03 -3.3908442765939406e-02 -9.9676360890724292e-01 -3.3908442765939406e-02 -9.9676360890724292e-01  7.2844935274172420e-02 -2.4780783492294413e-03
1.836336336336337e+00  7.6627584897064463e-02 -4.1096699920437499e-03 -5.3396848322381063e-02 -9.9562046003215388e-01 -5.3396848322381063e-02 -9.9562046003215388e-01  7.6627584897064463e-02 -4.1096699920437499e-03
1.837837837837838e+00  8.0545913904268698e-02 -5.9192126076853492e-03 -7.3051617611660791e-02 -9.9405270475953977e-01 -7.3051617611660791e-02 -9.9405270475953977e-01  8.0545913904268698e-02 -5.9192126076853492e-03
1.839339339339339e+00  8.4600167549007163e-02 -7.9196822355016693e-03 -9.2868493956547560e-02 -9.9204613456946511e-01 -9.2868493956547560e-02 -9.9204613456946511e-01  8.4600167549007163e-02 -7.9196822355016693e-03
1.840840840840841e+00  8.8790061956768224e-02 -1.0124743944977166e-02 -1.1284263290111984e-01 -9.8958595112183556e-01 -1.1284263290111984e-01 -9.8958595112183556e-01  8.8790061956768224e-02 -1.0124743944977166e-02
1.842342342342342e+00  9.3114717647221110e-02 -1.2548769249966951e-02 -1.3296853835874167e-01 -9.8665675163885169e-01 -1.3296853835874167e-01 -9.8665675163885169e-01  9.3114717647221110e-02 -1.2548769249966951e-02
1.843843843843844e+00  9.7572587047011564e-02 -1.5206851099362513e-02 -1.5323999288664128e-01 -9.8324251663396844e-01 -1.5323999288664128e-01 -9.8324251663396844e-01  9.7572587047011564e-02 -1.5206851099362513e-02
1.845345345345346e+00  1.0216137561223029e-01 -1.8114815828659127e-02 -1.7364998170383072e-01 -9.7932660059592402e-01 -1.7364998170383072e-01 -9.7932660059592402e-01  1.0216137561223029e-01 -1.8114815828659127e-02
1.846846846846847e+00  1.0687795618723953e-01 -2.1289231363001881e-02 -1.9419061007643904e-01 -9.7489172633034260e-01 -1.9419061007643904e-01 -9.7489172633034260e-01  1.0687795618723953e-01 -2.1289231363001881e-02
1.848348348348348e+00  1.1171827624384403e-01 -2.4747410858028743e-02 -2.1485301371165486e-01 -9.6991998376564781e-01 -2.1485301371165486e-01 -9.6991998376564781e-01  1.1171827624384403e-01 -2.4747410858028743e-02
1.849849849849850e+00  1.1667725767371497e-01 -2.8507410849673193e-02 -2.3562726182976768e-01 -9.6439283414540178e-01 -2.3562726182976768e-01 -9.6439283414540178e-01  1.1667725767371497e-01 -2.8507410849673193e-02
1.851351351351351e+00  1.2174868885037693e-01 -3.2588022857982395e-02 -2.5650225262707327e-01 -9.5829112065523381e-01 -2.5650225262707327e-01 -9.5829112065523381e-01  1.2174868885037693e-01 -3.2588022857982395e-02
1.852852852852853e+00  1.2692510873781368e-01 -3.7008757252824820e-02 -2.7746560090246253e-01 -9.5159508666992043e-01 -2.7746560090246253e-01 -9.5159508666992043e-01  1.2692510873781368e-01 -3.7008757252824820e-02
1.854354354354355e+00  1.3219768290475811e-01 -4.1789818041837873e-02 -2.9850351770247485e-01 -9.4428440295384330e-01 -2.9850351770247485e-01 -9.4428440295384330e-01  1.3219768290475811e-01 -4.1789818041837873e-02
1.855855855855856e+00  1.3755607141065679e-01 -4.6952067083807739e-02 -3.1960068194578023e-01 -9.3633820530533762e-01 -3.1960068194578023e-01 -9.3633820530533762e-01  1.3755607141065679e-01 -4.6952067083807739e-02
1.857357357357358e+00  1.4298828866598470e-01 -5.2516976065833686e-02 -3.4074010412472844e-01 -9.2773514430054238e-01 -3.4074010412472844e-01 -9.2773514430054238e-01  1.4298828866598470e-01 -5.2516976065833686e-02
1.858858858858859e+00  1.4848055554076148e-01 -5.8506564412358061e-02 -3.6190298235207152e-01 -9.1845344896279135e-01 -3.6190298235207152e-01 -9.1845344896279135e-01  1.4848055554076148e-01 -5.8506564412358061e-02
1.860360360360360e+00  1.5401714420626669e-01 -6.4943321122218428e-02 -3.8306855123204037e-01 -9.0847100635581723e-01 -3.8306855123204037e-01 -9.0847100635581723e-01  1.5401714420626669e-01 -6.4943321122218428e-02
1.861861861861862e+00  1.5958021645172774e-01 -7.1850108361004819e-02 -4.0421392429113534e-01 -8.9776545926812013e-01 -4.0421392429113534e-01 -8.9776545926812013e-01  1.5958021645172774e-01 -7.1850108361004819e-02
1.863363363363363e+00  1.6514965652591221e-01 -7.9250044476681603e-02 -4.2531393101205156e-01 -8.8631432431553048e-01 -4.2531393101205156e-01 -8.8631432431553048e-01  1.6514965652591221e-01 -7.9250044476681603e-02
1.864864864864865e+00  1.7070289991891061e-01 -8.7166363964787871e-02 -4.4634094987900524e-01 -8.7409513293093277e-01 -4.4634094987900524e-01 -8.7409513293093277e-01  1.7070289991891061e-01 -8.7166363964787871e-02
1.866366366366367e+00  1.7621475992725019e-01 -9.5622251795955654e-02 -4.6726473927035478e-01 -8.6108559782397087e-01 -4.6726473927035478e-01 -8.6108559782397087e-01  1.7621475992725019e-01 -9.5622251795955654e-02
1.867867867867868e+00  1.8165725434047320e-01 -1.0464064944571977e-01 -4.8805226852914863e-01 -8.4726380756681152e-01 -4.8805226852914863e-01 -8.4726380756681152e-01  1.8165725434047320e-01 -1.0464064944571977e-01
1.869369369369370e+00  1.8699943515244943e-01 -1.1424402994986424e-01 -5.0866755210706516e-01 -8.3260845197901190e-01 -5.0866755210706516e-01 -8.3260845197901190e-01  1.8699943515244943e-01 -1.1424402994986424e-01
1.870870870870871e+00  1.9220722483731179e-01 -1.2445413936616807e-01 -5.2907149031353506e-01 -8.1709908092739036e-01 -5.2907149031353506e-01 -8.1709908092739036e-01  1.9220722483731179e-01 -1.2445413936616807e-01
1.872372372372372e+00  1.9724326343606186e-01 -1.3529170217640421e-01 -5.4922172090788857e-01 -8.0071639900422109e-01 -5.4922172090788857e-01 -8.0071639900422109e-01  1.9724326343606186e-01 -1.3529170217640421e-01
1.873873873873874e+00  2.0206677146991039e-01 -1.4677608843463011e-01 -5.6907248654208742e-01 -7.8344259827531237e-01 -5.6907248654208742e-01 -7.8344259827531237e-01  2.0206677146991039e-01 -1.4677608843463011e-01
1.875375375375375e+00  2.0663343451946162e-01 -1.5892494088568415e-01 -5.8857452388452713e-01 -7.6526173087204918e-01 -5.8857452388452713e-01 -7.6526173087204918e-01  2.0663343451946162e-01 -1.5892494088568415e-01
1.876876876876877e+00  2.1089531616757309e-01 -1.7175376086945635e-01 -6.0767498111394425e-01 -7.4616012261039089e-01 -6.0767498111394425e-01 -7.4616012261039089e-01  2.1089531616757309e-01 -1.7175376086945635e-01
1.878378378378379e+00  2.1480080687307729e-01 -1.8527545262120509e-01 -6.2631737134168408e-01 -7.2612682802546769e-01 -6.2631737134168408e-01 -7.2612682802546769e-01  2.1480080687307729e-01 -1.8527545262120509e-01
1.879879879879880e+00  2.1829461718804477e-01 -1.9949982660416735e-01 -6.4444157036606931e-01 -7.0515412618501438e-01 -6.4444157036606931e-01 -7.0515412618501438e-01  2.1829461718804477e-01 -1.9949982660416735e-01
1.881381381381382e+00  2.2131782450803228e-01 -2.1443306379354377e-01 -6.6198386793917208e-01 -6.8323805536243676e-01 -6.6198386793917208e-01 -6.8323805536243676e-01  2.2131782450803228e-01 -2.1443306379354377e-01
1.882882882882883e+00  2.2380798319641262e-01 -2.3007714439078059e-01 -6.7887708237802280e-01 -6.6037898309110976e-01 -6.7887708237802280e-01 -6.6037898309110976e-01  2.2380798319641262e-01 -2.3007714439078059e-01
1.884384384384385e+00  2.2569930838184787e-01 -2.4642924629469745e-01 -6.9505074881025131e-01 -6.3658220627416962e-01 -6.9505074881025131e-01 -6.3658220627416962e-01  2.2569930838184787e-01 -2.4642924629469745e-01
1.885885885885886e+00  2.2692294391234996e-01 -2.6348112078904556e-01 -7.1043139152845813e-01 -6.1185857389174880e-01 -7.1043139152845813e-01 -6.1185857389174880e-01  2.2692294391234996e-01 -2.6348112078904556e-01
1.887387387387387e+00  2.2740732476986783e-01 -2.8121845530472928e-01 -7.2494289074825291e-01 -5.8622512244921754e-01 -7.2494289074825291e-01 -5.8622512244921754e-01  2.2740732476986783e-01 -2.8121845530472928e-01
1.888888888888889e+00  2.2707864360863084e-01 -2.9962023573558449e-01 -7.3850695342433914e-01 -5.5970571169010119e-01 -7.3850695342433914e-01 -5.5970571169010119e-01  2.2707864360863084e-01 -2.9962023573558449e-01
1.890390390390390e+00  2.2586142987867938e-01 -3.1865812355849366e-01 -7.5104369657712278e-01 -5.3233164532565225e-01 -7.5104369657712278e-01 -5.3233164532565225e-01  2.2586142987867938e-01 -3.1865812355849366e-01
1.891891891891892e+00  2.2367924813786605e-01 -3.3829586582820437e-01 -7.6247234972460443e-01 -5.0414225871421359e-01 -7.6247234972460443e-01 -5.0414225871421359e-01  2.2367924813786605e-01 -3.3829586582820437e-01
1.893393393393394e+00  2.2045551955934015e-01 -3.5848875884599285e-01 -7.7271208041797312e-01 -4.7518545269505863e-01 -7.7271208041797312e-01 -4.7518545269505863e-01  2.2045551955934015e-01 -3.5848875884599285e-01
1.894894894894895e+00  2.1611446724988703e-01 -3.7918318876378371e-01 -7.8168294348809297e-01 -4.4551815031939990e-01 -7.8168294348809297e-01 -4.4551815031939990e-01  2.1611446724988703e-01 -3.7918318876378371e-01
1.896396396396397e+00  2.1058218178852162e-01 -4.0031627437377343e-01 -7.8930695040413335e-01 -4.1520665123335371e-01 -7.8930695040413335e-01 -4.1520665123335371e-01  2.1058218178852162e-01 -4.0031627437377343e-01
1.897897897897898e+00  2.0378779840604844e-01 -4.2181563861115745e-01 -7.9550925015738416e-01 -3.8432685719047599e-01 -7.9550925015738416e-01 -3.8432685719047599e-01  2.0378779840604844e-01 -4.2181563861115745e-01
1.899399399399399e+00  1.9566477155232079e-01 -4.4359933561407844e-01 -8.0021940740945108e-01 -3.5296434185537251e-01 -8.0021940740945108e-01 -3.5296434185537251e-01  1.9566477155232079e-01 -4.4359933561407844e-01
1.900900900900901e+00  1.8615222641152865e-01 -4.6557595929011653e-01 -8.0337275745796277e-01 -3.2121423895510737e-01 -8.0337275745796277e-01 -3.2121423895510737e-01  1.8615222641152865e-01 -4.6557595929011653e-01
1.902402402402402e+00  1.7519636048327070e-01 -4.8764495700848914e-01 -8.0491181113081978e-01 -2.8918092516572980e-01 -8.0491181113081978e-01 -2.8918092516572980e-01  1.7519636048327070e-01 -4.8764495700848914e-01
1.903903903903904e+00  1.6275186198782224e-01 -5.0969716809751342e-01 -8.0478767636081150e-01 -2.5697747806108306e-01 -8.0478767636081150e-01 -2.5697747806108306e-01  1.6275186198782224e-01 -5.0969716809751342e-01
1.905405405405406e+00  1.4878330599192491e-01 -5.3161560118672080e-01 -8.0296145733093915e-01 -2.2472489509168891e-01 -8.0296145733093915e-01 -2.2472489509168891e-01  1.4878330599192491e-01 -5.3161560118672080e-01
1.906906906906907e+00  1.3326648425585119e-01 -5.5327645711012774e-01 -7.9940558718547239e-01 -1.9255106688460982e-01 -7.9940558718547239e-01 -1.9255106688460982e-01  1.3326648425585119e-01 -5.5327645711012774e-01
1.908408408408409e+00  1.1618962136724510e-01 -5.7455039523641482e-01 -7.9410504686702921e-01 -1.6058950700631380e-01 -7.9410504686702921e-01 -1.6058950700631380e-01  1.1618962136724510e-01 -5.7455039523641482e-01
1.909909909909910e+00  9.7554428229250256e-02 -5.9530403101858820e-01 -7.8705842114234059e-01 -1.2897785040390553e-01 -7.8705842114234059e-01 -1.2897785040390553e-01  9.7554428229250256e-02 -5.9530403101858820e-01
1.911411411411411e+00  7.7376944821015023e-02 -6.1540164172026468e-01 -7.7827874373043926e-01 -9.7856143575861532e-02 -7.7827874373043926e-01 -9.7856143575861532e-02  7.7376944821015023e-02 -6.1540164172026468e-01
1.912912912912913e+00  5.5688127639844903e-02 -6.3470704627885444e-01 -7.6779408693870188e-01 -6.7364960520346295e-02 -7.6779408693870188e-01 -6.7364960520346295e-02  5.5688127639844903e-02 -6.3470704627885444e-01
1.914414414414415e+00  3.2534143490910959e-02 -6.5308561481414185e-01 -7.5564785746910867e-01 -3.7643388961332125e-02 -7.5564785746910867e-01 -3.7643388961332125e-02  3.2534143490910959e-02 -6.5308561481414185e-01
1.915915915915916e+00  7.9763402280498118e-03 -6.7040635414728256e-01 -7.4189876899547091e-01 -8.8269404961205389e-03 -7.4189876899547091e-01 -8.8269404961205389e-03  7.9763402280498118e-03 -6.7040635414728256e-01
1.917417417417418e+00 -1.7909123644521401e-02 -6.8654400861012310e-01 -7.2662047341888714e-01  1.8954554606694485e-02 -7.2662047341888714e-01  1.8954554606694485e-02 -1.7909123644521401e-02 -6.8654400861012310e-01
1.918918918918919e+00 -4.5031995467345015e-02 -7.0138111106230128e-01 -7.0990084584176727e-01  4.5579002867345786e-02 -7.0990084584176727e-01  4.5579002867345786e-02 -4.5031995467345015e-02 -7.0138111106230128e-01
1.920420420420420e+00 -7.3288981757900509e-02 -7.1480991789497261e-01 -6.9184093251872603e-01  7.0933987082960170e-02 -6.9184093251872603e-01  7.0933987082960170e-02 -7.3288981757900509e-02 -7.1480991789497261e-01
1.921921921921922e+00 -1.0256511470479274e-01 -7.2673416416133829e-01 -6.7255358545851018e-01  9.4918525974730189e-02 -6.7255358545851018e-01  9.4918525974730189e-02 -1.0256511470479274e-01 -7.2673416416133829e-01
1.923423423423423e+00 -1.3273539449181815e-01 -7.3707058084039001e-01 -6.5216182100847442e-01  1.1744459599155763e-01 -6.5216182100847442e-01  1.1744459599155763e-01 -1.3273539449181815e-01 -7.3707058084039001e-01
1.924924924924925e+00 -1.6366665815705464e-01 -7.4575012533187823e-01 -6.3079695171662409e-01  1.3843836635920395e-01 -6.3079695171662409e-01  1.3843836635920395e-01 -1.6366665815705464e-01 -7.4575012533187823e-01
1.926426426426427e+00 -1.9521961624550219e-01 -7.5271888804707399e-01 -6.0859655021310066e-01  1.5784111023065994e-01 -6.0859655021310066e-01  1.5784111023065994e-01 -1.9521961624550219e-01 -7.5271888804707399e-01
1.927927927927928e+00 -2.2725099221328252e-01 -7.5793865163198992e-01 -5.8570231015410590e-01  1.7560976846548051e-01 -5.8570231015410590e-01  1.7560976846548051e-01 -2.2725099221328252e-01 -7.5793865163198992e-01
1.929429429429430e+00 -2.5961569675898361e-01 -7.6138709401700710e-01 -5.6225787205413391e-01  1.9171715722344104e-01 -5.6225787205413391e-01  1.9171715722344104e-01 -2.5961569675898361e-01 -7.6138709401700710e-01
1.930930930930931e+00 -2.9216897008024273e-01 -7.6305764115331920e-01 -5.3840668101025968e-01  2.0615182522427872e-01 -5.3840668101025968e-01  2.0615182522427872e-01 -2.9216897008024273e-01 -7.6305764115331920e-01
1.932432432432432e+00 -3.2476842928143673e-01 -7.6295898902977122e-01 -5.1428993909500853e-01  2.1891758025884428e-01 -5.1428993909500853e-01  2.1891758025884428e-01 -3.2476842928143673e-01 -7.6295898902977122e-01
1.933933933933934e+00 -3.5727596533744121e-01 -7.6111432654364519e-01 -4.9004470801556888e-01  2.3003271651690169e-01 -4.9004470801556888e-01  2.3003271651690169e-01 -3.5727596533744121e-01 -7.6111432654364519e-01
1.935435435435436e+00 -3.8955944350061866e-01 -7.5756030039379418e-01 -4.6580220815529938e-01  2.3952898389212401e-01 -4.6580220815529938e-01  2.3952898389212401e-01 -3.8955944350061866e-01 -7.5756030039379418e-01
1.936936936936937e+00 -4.2149417205302175e-01 -7.5234576997426172e-01 -4.4168634909921423e-01  2.4745034723470843e-01 -4.4168634909921423e-01  2.4745034723470843e-01 -4.2149417205302175e-01 -7.5234576997426172e-01
1.938438438438439e+00 -4.5296411604140879e-01 -7.4553040411473293e-01 -4.1781251500964661e-01  2.5385158739046848e-01 -4.1781251500964661e-01  2.5385158739046848e-01 -4.5296411604140879e-01 -7.4553040411473293e-01
1.939939939939940e+00 -4.8386284431357590e-01 -7.3718317251711607e-01 -3.9428661653795194e-01  2.5879679686855583e-01 -3.9428661653795194e-01  2.5879679686855583e-01 -4.8386284431357590e-01 -7.3718317251711607e-01
1.941441441441442e+00 -5.1409420911993386e-01 -7.2738078314719934e-01 -3.7120441001291193e-01  2.6235782138995656e-01 -3.7120441001291193e-01  2.6235782138995656e-01 -5.1409420911993386e-01 -7.2738078314719934e-01
1.942942942942943e+00 -5.4357276721640690e-01 -7.1620611307624649e-01 -3.4865107497460351e-01  2.6461269480500010e-01 -3.4865107497460351e-01  2.6461269480500010e-01 -5.4357276721640690e-01 -7.1620611307624649e-01
1.944444444444445e+00 -5.7222395943125426e-01 -7.0374667483864783e-01 -3.2670103309646226e-01  2.6564410943980815e-01 -3.2670103309646226e-01  2.6564410943980815e-01 -5.7222395943125426e-01 -7.0374667483864783e-01
1.945945945945946e+00 -5.9998407183353963e-01 -6.9009315382200165e-01 -3.0541798536316078e-01  2.6553795738227381e-01 -3.0541798536316078e-01  2.6553795738227381e-01 -5.9998407183353963e-01 -6.9009315382200165e-01
1.947447447447447e+00 -6.2680000591788765e-01 -6.7533804506479267e-01 -2.8485514009545043e-01  2.6438197107707601e-01 -2.8485514009545043e-01  2.6438197107707601e-01 -6.2680000591788765e-01 -6.7533804506479267e-01
1.948948948948949e+00 -6.5262888768156013e-01 -6.5957441057882082e-01 -2.6505560195176997e-01  2.6226448434187410e-01 -2.6505560195176997e-01  2.6226448434187410e-01 -6.5262888768156013e-01 -6.5957441057882082e-01
1.950450450450451e+00 -6.7743754629924002e-01 -6.4289477133631878e-01 -2.4605289120745272e-01  2.5927332793971680e-01 -2.4605289120745272e-01  2.5927332793971680e-01 -6.7743754629924002e-01 -6.4289477133631878e-01
1.951951951951952e+00 -7.0120189254755116e-01 -6.2539014166772688e-01 -2.2787156316568447e-01  2.5549486744938310e-01 -2.2787156316568447e-01  2.5549486744938310e-01 -7.0120189254755116e-01 -6.2539014166772688e-01
1.953453453453454e+00 -7.2390622547926231e-01 -6.0714920821482987e-01 -2.1052789920672038e-01  2.5101318557413055e-01 -2.1052789920672038e-01  2.5101318557413055e-01 -7.2390622547926231e-01 -6.0714920821482987e-01
1.954954954954955e+00 -7.4554249338696366e-01 -5.8825765089273008e-01 -1.9403064344214699e-01  2.4590940633887964e-01 -1.9403064344214699e-01  2.4590940633887964e-01 -7.4554249338696366e-01 -5.8825765089273008e-01
1.956456456456457e+00 -7.6610953210257415e-01 -5.6879759957557119e-01 -1.7838176193439820e-01  2.4026115488737701e-01 -1.7838176193439820e-01  2.4026115488737701e-01 -7.6610953210257415e-01 -5.6879759957557119e-01
1.957957957957958e+00 -7.8561230039910224e-01 -5.4884721741267006e-01 -1.6357720472188850e-01  2.3414214378314741e-01 -1.6357720472188850e-01  2.3414214378314741e-01 -7.8561230039910224e-01 -5.4884721741267006e-01
1.959459459459459e+00 -8.0406112890008308e-01 -5.2848039973684380e-01 -1.4960765425101358e-01  2.2762187477352697e-01 -1.4960765425101358e-01  2.2762187477352697e-01 -8.0406112890008308e-01 -5.2848039973684380e-01
1.960960960960961e+00 -8.2147099562478720e-01 -5.0776657634692457e-01 -1.3645924709378487e-01  2.2076544379666158e-01 -1.3645924709378487e-01  2.2076544379666158e-01 -8.2147099562478720e-01 -5.0776657634692457e-01
1.962462462462462e+00 -8.3786083822411661e-01 -4.8677060441674463e-01 -1.2411425890292771e-01  2.1363343648200550e-01 -1.2411425890292771e-01  2.1363343648200550e-01 -8.3786083822411661e-01 -4.8677060441674463e-01
1.963963963963964e+00 -8.5325291017622662e-01 -4.6555273928230206e-01 -1.1255174534217206e-01  2.0628190139460886e-01 -1.1255174534217206e-01  2.0628190139460886e-01 -8.5325291017622662e-01 -4.6555273928230206e-01
1.965465465465466e+00 -8.6767218576033223e-01 -4.4416867076948974e-01 -1.0174813418004063e-01  1.9876238868465396e-01 -1.0174813418004063e-01  1.9876238868465396e-01 -8.6767218576033223e-01 -4.4416867076948974e-01
1.966966966966967e+00 -8.8114581653230839e-01 -4.2266961343822196e-01 -9.1677765830190328e-02  1.9112204251727682e-01 -9.1677765830190328e-02  1.9112204251727682e-01 -8.8114581653230839e-01 -4.2266961343822196e-01
1.968468468468469e+00 -8.9370264028586044e-01 -4.0110244003794782e-01 -8.2313381361128007e-02  1.8340373657746203e-01 -8.2313381361128007e-02  1.8340373657746203e-01 -8.9370264028586044e-01 -4.0110244003794782e-01
1.969969969969970e+00 -9.0537274208089269e-01 -3.7950984851369823e-01 -7.3626558400212816e-02  1.7564624298906339e-01 -7.3626558400212816e-02  1.7564624298906339e-01 -9.0537274208089269e-01 -3.7950984851369823e-01
1.971471471471471e+00 -9.1618706582862874e-01 -3.5793055400352186e-01 -6.5588096448736144e-02  1.6788442608914966e-01 -6.5588096448736144e-02  1.6788442608914966e-01 -9.1618706582862874e-01 -3.5793055400352186e-01
1.972972972972973e+00 -9.2617707410746697e-01 -3.3639949837530453e-01 -5.8168353940503549e-02  1.6014945360637350e-01 -5.8168353940503549e-02  1.6014945360637350e-01 -9.2617707410746697e-01 -3.3639949837530453e-01
1.974474474474475e+00 -9.3537445330637736e-01 -3.1494807092495963e-01 -5.1337539953083329e-02  1.5246901886613223e-01 -5.1337539953083329e-02  1.5246901886613223e-01 -9.3537445330637736e-01 -3.1494807092495963e-01
1.975975975975976e+00 -9.4381086081850118e-01 -2.9360433486947513e-01 -4.5065963855206947e-02  1.4486756865734682e-01 -4.5065963855206947e-02  1.4486756865734682e-01 -9.4381086081850118e-01 -2.9360433486947513e-01
1.977477477477478e+00 -9.5151771079871361e-01 -2.7239325520087521e-01 -3.9324246382295876e-02  1.3736653232831797e-01 -3.9324246382295876e-02  1.3736653232831797e-01 -9.5151771079871361e-01 -2.7239325520087521e-01
1.978978978978979e+00 -9.5852599492402801e-01 -2.5133692430886029e-01 -3.4083495706943530e-02  1.2998454852117064e-01 -3.4083495706943530e-02  1.2998454852117064e-01 -9.5852599492402801e-01 -2.5133692430886029e-01
1.980480480480481e+00 -9.6486613462435911e-01 -2.3045478252722232e-01 -2.9315452042258980e-02  1.2273768670189775e-01 -2.9315452042258980e-02  1.2273768670189775e-01 -9.6486613462435911e-01 -2.3045478252722232e-01
1.981981981981982e+00 -9.7056786135834561e-01 -2.0976383141167756e-01 -2.4992604208673261e-02  1.1563966129595216e-01 -2.4992604208673261e-02  1.1563966129595216e-01 -9.7056786135834561e-01 -2.0976383141167756e-01
1.983483483483483e+00 -9.7566012167242655e-01 -1.8927883811890486e-01 -2.1088281431105312e-02  1.0870203680143778e-01 -2.1088281431105312e-02  1.0870203680143778e-01 -9.7566012167242655e-01 -1.8927883811890486e-01
1.984984984984985e+00 -9.8017100398332446e-01 -1.6901252973289896e-01 -1.7576723431139987e-02  1.0193442272868476e-01 -1.7576723431139987e-02  1.0193442272868476e-01 -9.8017100398332446e-01 -1.6901252973289896e-01
1.986486486486487e+00 -9.8412768424981945e-01 -1.4897577678355914e-01 -1.4433131653048790e-02  9.5344657613862641e-02 -1.4433131653048790e-02  9.5344657613862641e-02 -9.8412768424981945e-01 -1.4897577678355914e-01
1.987987987987988e+00 -9.8755638793729128e-01 -1.2917776553067109e-01 -1.1633704224572571e-02  8.8938981682740489e-02 -1.1633704224572571e-02  8.8938981682740489e-02 -9.8755638793729128e-01 -1.2917776553067109e-01
1.989489489489490e+00 -9.9048236591909544e-01 -1.0962615885283675e-01 -9.1556570126130540e-03  8.2722198007232961e-02 -9.1556570126130540e-03  8.2722198007232961e-02 -9.9048236591909544e-01 -1.0962615885283675e-01
1.990990990990991e+00 -9.9292988219554523e-01 -9.0327245792995614e-02 -6.9772328970403655e-03  7.6697822209546268e-02 -6.9772328970403655e-03  7.6697822209546268e-02 -9.9292988219554523e-01 -9.0327245792995614e-02
1.992492492492492e+00 -9.9492221153917282e-01 -7.1286079977499722e-02 -5.0777011577319078e-03  7.0868220934300188e-02 -5.0777011577319078e-03  7.0868220934300188e-02 -9.9492221153917282e-01 -7.1286079977499722e-02
1.993993993993994e+00 -9.9648164539042294e-01 -5.2506607251661237e-02 -3.4373486541555420e-03  6.5234739434913716e-02 -3.4373486541555420e-03  6.5234739434913716e-02 -9.9648164539042294e-01 -5.2506607251661237e-02
1.995495495495496e+00 -9.9762950452921351e-01 -3.3991782967029073e-02 -2.0374642754329812e-03  5.9797818713062834e-02 -2.0374642754329812e-03  5.9797818713062834e-02 -9.9762950452921351e-01 -3.3991782967029073e-02
1.996996996996997e+00 -9.9838615723309965e-01 -1.5743679420429136e-02 -8.6031795315625118e-04  5.4557102714868341e-02 -8.6031795315625118e-04  5.4557102714868341e-02 -9.9838615723309965e-01 -1.5743679420429136e-02
1.998498498498499e+00 -9.9877104180213516e-01  2.2364160129735465e-03  1.1086464023586304e-04  4.9511536129704305e-02  1.1086464023586304e-04  4.9511536129704305e-02 -9.9877104180213516e-01  2.2364160129735465e-03
2.000000000000000e+00 -9.9880269248352871e-01  1.9947911486706670e-02  8.9193073807217194e-04  4.4659453361269398e-02  8.9193073807217194e-04  4.4659453361269398e-02 -9.9880269248352871e-01  1.9947911486706670e-02
2.001501501501502e+00 -9.9849876796682291e-01  3.7390829454980588e-02  1.4978316392748742e-03  3.9998659249814425e-02  1.4978316392748742e-03  3.9998659249814425e-02 -9.9849876796682291e-01  3.7390829454980588e-02
2.003003003003003e+00 -9.9787608174264841e-01  5.4565733036737854e-02  1.9426556723760834e-03  3.5526502122139689e-02  1.9426556723760834e-03  3.5526502122139689e-02 -9.9787608174264841e-01  5.4565733036737854e-02
2.004504504504505e+00 -9.9695063372685311e-01  7.1473659410181772e-02  2.2396623634775015e-03  3.1239939734847330e-02  2.2396623634775015e-03  3.1239939734847330e-02 -9.9695063372685311e-01  7.1473659410181772e-02
2.006006006006006e+00 -9.9573764264724873e-01  8.8116059693642695e-02  2.4013173037000582e-03  2.7135598658718230e-02  2.4013173037000582e-03  2.7135598658718230e-02 -9.9573764264724873e-01  8.8116059693642695e-02
2.007507507507508e+00 -9.9425157877408743e-01  1.0449474479119776e-01  2.4393272956056145e-03  2.3209827629598726e-02  2.4393272956056145e-03  2.3209827629598726e-02 -9.9425157877408743e-01  1.0449474479119776e-01
2.009009009009009e+00 -9.9250619664817286e-01  1.2061183670719182e-01  2.3646754312193468e-03  1.9458745365470001e-02  2.3646754312193468e-03  1.9458745365470001e-02 -9.9250619664817286e-01  1.2061183670719182e-01
2.010510510510511e+00 -9.9051456752387257e-01  1.3646972486150405e-01  2.1876558177080785e-03  1.5878283321573899e-02  2.1876558177080785e-03  1.5878283321573899e-02 -9.9051456752387257e-01  1.3646972486150405e-01
2.012012012012012e+00 -9.8828911129880037e-01  1.5207102696633823e-01  1.9179077215061126e-03  1.2464223826540943e-02  1.9179077215061126e-03  1.2464223826540943e-02 -9.8828911129880037e-01  1.5207102696633823e-01
2.013513513513514e+00 -9.8584162774872008e-01  1.6741855405457098e-01  1.5644489486791508e-03  9.2122340131602556e-03  1.5644489486791508e-03  9.2122340131602556e-03 -9.8584162774872008e-01  1.6741855405457098e-01
2.015015015015015e+00 -9.8318332692627119e-01  1.8251527927877495e-01  1.1357083194752445e-03  6.1178959283403299e-03  1.1357083194752445e-03  6.1178959283403299e-03 -9.8318332692627119e-01  1.8251527927877495e-01
2.016516516516517e+00 -9.8032485861603846e-01  1.9736431012833006e-01  6.3955712914648367e-04  3.1767331783529463e-03  6.3955712914648367e-04  3.1767331783529463e-03 -9.8032485861603846e-01  1.9736431012833006e-01
2.018018018018018e+00 -9.7727634076722758e-01  2.1196886373955051e-01  8.3339515990745312e-05  3.8423443798246270e-04  8.3339515990745312e-05  3.8423443798246270e-04 -9.7727634076722758e-01  2.1196886373955051e-01
2.019519519519520e+00 -9.7404738684924452e-01  2.2633224499999877e-01 -5.2609831818566002e-04 -2.2641258741304283e-03 -5.2609831818566002e-04 -2.2641258741304283e-03 -9.7404738684924452e-01  2.2633224499999877e-01
2.021021021021021e+00 -9.7064713209572007e-01  2.4045782717283193e-01 -1.1823800697088522e-03 -4.7728694765470439e-03 -1.1823800697088522e-03 -4.7728694765470439e-03 -9.7064713209572007e-01  2.4045782717283193e-01
2.022522522522523e+00 -9.6708425861901970e-01  2.5434903479083998e-01 -1.8795724945174139e-03 -7.1464984086762363e-03 -1.8795724945174139e-03 -7.1464984086762363e-03 -9.6708425861901970e-01  2.5434903479083998e-01
2.024024024024024e+00 -9.6336701939112435e-01  2.6800932859132476e-01 -2.6121597733794080e-03 -9.3894812851502019e-03 -2.6121597733794080e-03 -9.3894812851502019e-03 -9.6336701939112435e-01  2.6800932859132476e-01
2.025525525525526e+00 -9.5950326109783546e-01  2.8144219228376716e-01 -3.3750190734874786e-03 -1.1506241409651674e-02 -3.3750190734874786e-03 -1.1506241409651674e-02 -9.5950326109783546e-01  2.8144219228376716e-01
2.027027027027027e+00 -9.5550044588219429e-01  2.9465112096105123e-01 -4.1633972899943394e-03 -1.3501146555964282e-02 -4.1633972899943394e-03 -1.3501146555964282e-02 -9.5550044588219429e-01  2.9465112096105123e-01
2.028528528528529e+00 -9.5136567200017474e-01  3.0763961098259834e-01 -4.9728889438409992e-03 -1.5378500241658223e-02 -4.9728889438409992e-03 -1.5378500241658223e-02 -9.5136567200017474e-01  3.0763961098259834e-01
2.030030030030030e+00 -9.4710569341719075e-01  3.2041115117383057e-01 -5.7994152065899505e-03 -1.7142534336052746e-02 -5.7994152065899505e-03 -1.7142534336052746e-02 -9.4710569341719075e-01  3.2041115117383057e-01
2.031531531531532e+00 -9.4272693837818566e-01  3.3296921520140671e-01 -6.6392040186917609e-03 -1.8797402859070649e-02 -6.6392040186917609e-03 -1.8797402859070649e-02 -9.4272693837818566e-01  3.3296921520140671e-01
2.033033033033033e+00 -9.3823552698714763e-01  3.4531725499703025e-01 -7.4887712644253722e-03 -2.0347176841263762e-02 -7.4887712644253722e-03 -2.0347176841263762e-02 -9.3823552698714763e-01  3.4531725499703025e-01
2.034534534534535e+00 -9.3363728783402211e-01  3.5745869511534195e-01 -8.3449029645320371e-03 -2.1795840127849749e-02 -8.3449029645320371e-03 -2.1795840127849749e-02 -9.3363728783402211e-01  3.5745869511534195e-01
2.036036036036036e+00 -9.2893777370844122e-01  3.6939692792244733e-01 -9.2046384460902578e-03 -2.3147286021007053e-02 -9.2046384460902578e-03 -2.3147286021007053e-02 -9.2893777370844122e-01  3.6939692792244733e-01
2.037537537537538e+00 -9.2414227644038049e-01  3.8113530952218594e-01 -1.0065254448381494e-02 -2.4405314665125473e-02 -1.0065254448381494e-02 -2.4405314665125473e-02 -9.2414227644038049e-01  3.8113530952218594e-01
2.039039039039039e+00 -9.1925584090806589e-01  3.9267715633655520e-01 -1.0924250123209942e-02 -2.5573631089185273e-02 -1.0924250123209942e-02 -2.5573631089185273e-02 -9.1925584090806589e-01  3.9267715633655520e-01
2.040540540540541e+00 -9.1428327825328826e-01  4.0402574226512683e-01 -1.1779332888278825e-02 -2.6655843829042861e-02 -1.1779332888278825e-02 -2.6655843829042861e-02 -9.1428327825328826e-01  4.0402574226512683e-01
2.042042042042042e+00 -9.0922917834375183e-01  4.1518429635617454e-01 -1.2628405092729219e-02 -2.7655464060240061e-02 -1.2628405092729219e-02 -2.7655464060240061e-02 -9.0922917834375183e-01  4.1518429635617454e-01
2.043543543543544e+00 -9.0409792152118862e-01  4.2615600092908551e-01 -1.3469551454702921e-02 -2.8575905179019333e-02 -1.3469551454702921e-02 -2.8575905179019333e-02 -9.0409792152118862e-01  4.2615600092908551e-01
2.045045045045045e+00 -8.9889368967308136e-01  4.3694399009401286e-01 -1.4301027231775352e-02 -2.9420482775652443e-02 -1.4301027231775352e-02 -2.9420482775652443e-02 -8.9889368967308136e-01  4.3694399009401286e-01
2.046546546546546e+00 -8.9362047666452893e-01  4.4755134862035978e-01 -1.5121247086243031e-02 -3.0192414949983475e-02 -1.5121247086243031e-02 -3.0192414949983475e-02 -8.9362047666452893e-01  4.4755134862035978e-01
2.048048048048048e+00 -8.8828209816562365e-01  4.5798111111094669e-01 -1.5928774608516605e-02 -3.0894822924329643e-02 -1.5928774608516605e-02 -3.0894822924329643e-02 -8.8828209816562365e-01  4.5798111111094669e-01
2.049549549549550e+00 -8.8288220090822922e-01  4.6823626144320873e-01 -1.6722312463216676e-02 -3.1530731913616480e-02 -1.6722312463216676e-02 -3.1530731913616480e-02 -8.8288220090822922e-01  4.6823626144320873e-01
2.051051051051051e+00 -8.7742427140468660e-01  4.7831973244302839e-01 -1.7500693123971667e-02 -3.2103072216881245e-02 -1.7500693123971667e-02 -3.2103072216881245e-02 -8.7742427140468660e-01  4.7831973244302839e-01
2.052552552552553e+00 -8.7191164415953082e-01  4.8823440576057719e-01 -1.8262870164360186e-02 -3.2614680498137670e-02 -1.8262870164360186e-02 -3.2614680498137670e-02 -8.7191164415953082e-01  4.8823440576057719e-01
2.054054054054054e+00 -8.6634750940378769e-01  4.9798311192084144e-01 -1.9007910073886095e-02 -3.3068301228054556e-02 -1.9007910073886095e-02 -3.3068301228054556e-02 -8.6634750940378769e-01  4.9798311192084144e-01
2.055555555555556e+00 -8.6073492038001775e-01  5.0756863052459855e-01 -1.9734984569316182e-02 -3.3466588261009581e-02 -1.9734984569316182e-02 -3.3466588261009581e-02 -8.6073492038001775e-01  5.0756863052459855e-01
2.057057057057057e+00 -8.5507680020483112e-01  5.1699369057833444e-01 -2.0443363373153410e-02 -3.3812106524909333e-02 -2.0443363373153410e-02 -3.3812106524909333e-02 -8.5507680020483112e-01  5.1699369057833444e-01
2.058558558558559e+00 -8.4937594833415531e-01  5.2626097093397417e-01 -2.1132407432405669e-02 -3.4107333803660086e-02 -2.1132407432405669e-02 -3.4107333803660086e-02 -8.4937594833415531e-01  5.2626097093397417e-01
2.060060060060060e+00 -8.4363504665524969e-01  5.3537310082156320e-01 -2.1801562552195876e-02 -3.4354662594468385e-02 -2.1801562552195876e-02 -3.4354662594468385e-02 -8.4363504665524969e-01  5.3537310082156320e-01
2.061561561561562e+00 -8.3785666522805413e-01  5.4433266045992379e-01 -2.2450353420077441e-02 -3.4556402024166648e-02 -2.2450353420077441e-02 -3.4556402024166648e-02 -8.3785666522805413e-01  5.4433266045992379e-01
2.063063063063063e+00 -8.3204326769722881e-01  5.5314218173213603e-01 -2.3078377998211663e-02 -3.4714779810596147e-02 -2.3078377998211663e-02 -3.4714779810596147e-02 -8.3204326769722881e-01  5.5314218173213603e-01
2.064564564564565e+00 -8.2619721639502086e-01  5.6180414891417452e-01 -2.3685302261797173e-02 -3.4831944256718164e-02 -2.3685302261797173e-02 -3.4831944256718164e-02 -8.2619721639502086e-01  5.6180414891417452e-01
2.066066066066066e+00 -8.2032077715389462e-01  5.7032099944652093e-01 -2.4270855263332881e-02 -3.4909966266591728e-02 -2.4270855263332881e-02 -3.4909966266591728e-02 -8.2032077715389462e-01  5.7032099944652093e-01
2.067567567567568e+00 -8.1441612384677409e-01  5.7869512473974505e-01 -2.4834824503429827e-02 -3.4950841373675524e-02 -2.4834824503429827e-02 -3.4950841373675524e-02 -8.1441612384677409e-01  5.7869512473974505e-01
2.069069069069069e+00 -8.0848534267163186e-01  5.8692887100622992e-01 -2.5377051589977998e-02 -3.4956491773091312e-02 -2.5377051589977998e-02 -3.4956491773091312e-02 -8.0848534267163186e-01  5.8692887100622992e-01
2.070570570570571e+00 -8.0253043619620390e-01  5.9502454011116157e-01 -2.5897428168504311e-02 -3.4928768350540436e-02 -2.5897428168504311e-02 -3.4928768350540436e-02 -8.0253043619620390e-01  5.9502454011116157e-01
2.072072072072072e+00 -7.9655332717759408e-01  6.0298439043680485e-01 -2.6395892107544817e-02 -3.4869452701511032e-02 -2.6395892107544817e-02 -3.4869452701511032e-02 -7.9655332717759408e-01  6.0298439043680485e-01
2.073573573573574e+00 -7.9055586217067397e-01  6.1081063775487987e-01 -2.6872423923788705e-02 -3.4780259135257514e-02 -2.6872423923788705e-02 -3.4780259135257514e-02 -7.9055586217067397e-01  6.1081063775487987e-01
2.075075075075075e+00 -7.8453981493825453e-01  6.1850545610256602e-01 -2.7327043432638767e-02 -3.4662836658787423e-02 -2.7327043432638767e-02 -3.4662836658787423e-02 -7.8453981493825453e-01  6.1850545610256602e-01
2.076576576576576e+00 -7.7850688967528126e-01  6.2607097865822925e-01 -2.7759806610667709e-02 -3.4518770936762630e-02 -2.7759806610667709e-02 -3.4518770936762630e-02 -7.7850688967528126e-01  6.2607097865822925e-01
2.078078078078078e+00 -7.7245872405843574e-01  6.3350929861361116e-01 -2.8170802657251783e-02 -3.4349586223824329e-02 -2.8170802657251783e-02 -3.4349586223824329e-02 -7.7245872405843574e-01  6.3350929861361116e-01
2.079579579579580e+00 -7.6639689213193440e-01  6.4082247003959103e-01 -2.8560151243405028e-02 -3.4156747266386144e-02 -2.8560151243405028e-02 -3.4156747266386144e-02 -7.6639689213193440e-01  6.4082247003959103e-01
2.081081081081081e+00 -7.6032290703947736e-01  6.4801250874318084e-01 -2.8927999936550725e-02 -3.3941661171409489e-02 -2.8927999936550725e-02 -3.3941661171409489e-02 -7.6032290703947736e-01  6.4801250874318084e-01
2.082582582582583e+00 -7.5423822361181825e-01  6.5508139311369307e-01 -2.9274521790634785e-02 -3.3705679240108935e-02 -2.9274521790634785e-02 -3.3705679240108935e-02 -7.5423822361181825e-01  6.5508139311369307e-01
2.084084084084084e+00 -7.4814424081870523e-01  6.6203106495646113e-01 -2.9599913091614728e-02 -3.3450098764900307e-02 -2.9599913091614728e-02 -3.3450098764900307e-02 -7.4814424081870523e-01  6.6203106495646113e-01
2.085585585585586e+00 -7.4204230409347238e-01  6.6886343031266149e-01 -2.9904391248950966e-02 -3.3176164788245845e-02 -2.9904391248950966e-02 -3.3176164788245845e-02 -7.4204230409347238e-01  6.6886343031266149e-01
2.087087087087087e+00 -7.3593370753796084e-01  6.7558036026417323e-01 -3.0188192824289192e-02 -3.2885071822340510e-02 -3.0188192824289192e-02 -3.2885071822340510e-02 -7.3593370753796084e-01  6.7558036026417323e-01
2.088588588588589e+00 -7.2981969601499475e-01  6.8218369172257964e-01 -3.0451571689047576e-02 -3.2577965528846613e-02 -3.0451571689047576e-02 -3.2577965528846613e-02 -7.2981969601499475e-01  6.8218369172257964e-01
2.090090090090090e+00 -7.2370146713516681e-01  6.8867522820157279e-01 -3.0694797303116004e-02 -3.2255944358114325e-02 -3.0694797303116004e-02 -3.2255944358114325e-02 -7.2370146713516681e-01  6.8867522820157279e-01
2.091591591591592e+00 -7.1758017314426603e-01  6.9505674057231559e-01 -3.0918153107345994e-02 -3.1920061147528642e-02 -3.0918153107345994e-02 -3.1920061147528642e-02 -7.1758017314426603e-01  6.9505674057231559e-01
2.093093093093093e+00 -7.1145692271720606e-01  7.0132996780133006e-01 -3.1121935022942051e-02 -3.1571324678798640e-02 -3.1121935022942051e-02 -3.1571324678798640e-02 -7.1145692271720606e-01  7.0132996780133006e-01
2.094594594594595e+00 -7.0533278266407051e-01  7.0749661767072314e-01 -3.1306450051282179e-02 -3.1210701194166773e-02 -3.1306450051282179e-02 -3.1210701194166773e-02 -7.0533278266407051e-01  7.0749661767072314e-01
2.096096096096096e+00 -6.9920877955336302e-01  7.1355836748061374e-01 -3.1472014968080643e-02 -3.0839115871645492e-02 -3.1472014968080643e-02 -3.0839115871645492e-02 -6.9920877955336302e-01  7.1355836748061374e-01
2.097597597597598e+00 -6.9308590125737191e-01  7.1951686473374388e-01 -3.1618955106170625e-02 -3.0457454259513607e-02 -3.1618955106170625e-02 -3.0457454259513607e-02 -6.9308590125737191e-01  7.1951686473374388e-01
2.099099099099099e+00 -6.8696509842414621e-01  7.2537372780232590e-01 -3.1747603221526671e-02 -3.0066563670403834e-02 -3.1747603221526671e-02 -3.0066563670403834e-02 -6.8696509842414621e-01  7.2537372780232590e-01
2.100600600600601e+00 -6.8084728588033050e-01  7.3113054657727594e-01 -3.1858298437468867e-02 -2.9667254535402848e-02 -3.1858298437468867e-02 -2.9667254535402848e-02 -6.8084728588033050e-01  7.3113054657727594e-01
2.102102102102102e+00 -6.7473334396883811e-01  7.3678888310002422e-01 -3.1951385262292686e-02 -2.9260301718662944e-02 -3.1951385262292686e-02 -2.9260301718662944e-02 -6.7473334396883811e-01  7.3678888310002422e-01
2.103603603603604e+00 -6.6862411982507297e-01  7.4235027217713478e-01 -3.2027212675851943e-02 -2.8846445793088104e-02 -3.2027212675851943e-02 -2.8846445793088104e-02 -6.6862411982507297e-01  7.4235027217713478e-01
2.105105105105106e+00 -6.6252042859517668e-01  7.4781622197803987e-01 -3.2086133280890300e-02 -2.8426394277712857e-02 -3.2086133280890300e-02 -2.8426394277712857e-02 -6.6252042859517668e-01  7.4781622197803987e-01
2.106606606606607e+00 -6.5642305459956662e-01  7.5318821461619445e-01 -3.2128502515166621e-02 -2.8000822837439640e-02 -3.2128502515166621e-02 -2.8000822837439640e-02 -6.5642305459956662e-01  7.5318821461619445e-01
2.108108108108108e+00 -6.5033275244480504e-01  7.5846770671401398e-01 -3.2154677920654552e-02 -2.7570376445836237e-02 -3.2154677920654552e-02 -2.7570376445836237e-02 -6.5033275244480504e-01  7.5846770671401398e-01
2.109609609609610e+00 -6.4425024808665909e-01  7.6365612995196686e-01 -3.2165018466320063e-02 -2.7135670511728997e-02 -3.2165018466320063e-02 -2.7135670511728997e-02 -6.4425024808665909e-01  7.6365612995196686e-01
2.111111111111111e+00 -6.3817623984704197e-01  7.6875489160220156e-01 -3.2159883921186162e-02 -2.6697291970351551e-02 -3.2159883921186162e-02 -2.6697291970351551e-02 -6.3817623984704197e-01  7.6875489160220156e-01
2.112612612612613e+00 -6.3211139938733918e-01  7.7376537504710508e-01 -3.2139634274591260e-02 -2.6255800339828318e-02 -3.2139634274591260e-02 -2.6255800339828318e-02 -6.3211139938733918e-01  7.7376537504710508e-01
2.114114114114114e+00 -6.2605637264044378e-01  7.7868894028323510e-01 -3.2104629200730588e-02 -2.5811728743784491e-02 -3.2104629200730588e-02 -2.5811728743784491e-02 -6.2605637264044378e-01  7.7868894028323510e-01
2.115615615615616e+00 -6.2001178070374963e-01  7.8352692441100646e-01 -3.2055227564742744e-02 -2.5365584900889325e-02 -3.2055227564742744e-02 -2.5365584900889325e-02 -6.2001178070374963e-01  7.8352692441100646e-01
2.117117117117117e+00 -6.1397822069514829e-01  7.8828064211056159e-01 -3.1991786967766320e-02 -2.4917852082142641e-02 -3.1991786967766320e-02 -2.4917852082142641e-02 -6.1397822069514829e-01  7.8828064211056159e-01
2.118618618618619e+00 -6.0795626657396395e-01  7.9295138610425209e-01 -3.1914663328542626e-02 -2.4468990036716865e-02 -3.1914663328542626e-02 -2.4468990036716865e-02 -6.0795626657396395e-01  7.9295138610425209e-01
2.120120120120120e+00 -6.0194646992864720e-01  7.9754042760614774e-01 -3.1824210499286215e-02 -2.4019435887169392e-02 -3.1824210499286215e-02 -2.4019435887169392e-02 -6.0194646992864720e-01  7.9754042760614774e-01
2.121621621621622e+00 -5.9594936073295557e-01  8.0204901675897233e-01 -3.1720779913677291e-02 -2.3569604994837470e-02 -3.1720779913677291e-02 -2.3569604994837470e-02 -5.9594936073295557e-01  8.0204901675897233e-01
2.123123123123123e+00 -5.8996544807220463e-01  8.0647838305887865e-01 -3.1604720264958426e-02 -2.3119891796221419e-02 -3.1604720264958426e-02 -2.3119891796221419e-02 -5.8996544807220463e-01  8.0647838305887865e-01
2.124624624624625e+00 -5.8399522084109934e-01  8.1082973576848139e-01 -3.1476377212237179e-02 -2.2670670611156362e-02 -3.1476377212237179e-02 -2.2670670611156362e-02 -5.8399522084109934e-01  8.1082973576848139e-01
2.126126126126126e+00 -5.7803914841456994e-01  8.1510426431851013e-01 -3.1336093113207210e-02 -2.2222296423565189e-02 -3.1336093113207210e-02 -2.2222296423565189e-02 -5.7803914841456994e-01  8.1510426431851013e-01
2.127627627627628e+00 -5.7209768129293415e-01  8.1930313869849625e-01 -3.1184206781607413e-02 -2.1775105635573881e-02 -3.1184206781607413e-02 -2.1775105635573881e-02 -5.7209768129293415e-01  8.1930313869849625e-01
2.129129129129129e+00 -5.6617125172263405e-01  8.2342750983685897e-01 -3.1021053267836791e-02 -2.1329416795760649e-02 -3.1021053267836791e-02 -2.1329416795760649e-02 -5.6617125172263405e-01  8.2342750983685897e-01
2.130630630630631e+00 -5.6026027429375469e-01  8.2747850997073569e-01 -3.0846963661236734e-02 -2.0885531302299531e-02 -3.0846963661236734e-02 -2.0885531302299531e-02 -5.6026027429375469e-01  8.2747850997073569e-01
2.132132132132132e+00 -5.5436514651537905e-01  8.3145725300595075e-01 -3.0662264912639511e-02 -2.0443734081741313e-02 -3.0662264912639511e-02 -2.0443734081741313e-02 -5.5436514651537905e-01  8.3145725300595075e-01
2.133633633633634e+00 -5.4848624936986590e-01  8.3536483486744950e-01 -3.0467279675865485e-02 -2.0004294244166717e-02 -3.0467279675865485e-02 -2.0004294244166717e-02 -5.4848624936986590e-01  8.3536483486744950e-01
2.135135135135135e+00 -5.4262394784702395e-01  8.3920233384050469e-01 -3.0262326166928897e-02 -1.9567465715430409e-02 -3.0262326166928897e-02 -1.9567465715430409e-02 -5.4262394784702395e-01  8.3920233384050469e-01
2.136636636636637e+00 -5.3677859145908724e-01  8.4297081090308146e-01 -3.0047718039784198e-02 -1.9133487847196123e-02 -3.0047718039784198e-02 -1.9133487847196123e-02 -5.3677859145908724e-01  8.4297081090308146e-01
2.138138138138138e+00 -5.3095051473739585e-01  8.4667131004960805e-01 -2.9823764277516689e-02 -1.8702586005455227e-02 -2.9823764277516689e-02 -1.8702586005455227e-02 -5.3095051473739585e-01  8.4667131004960805e-01
2.139639639639640e+00 -5.2514003771156936e-01  8.5030485860650562e-01 -2.9590769097942053e-02 -1.8274972138197235e-02 -2.9590769097942053e-02 -1.8274972138197235e-02 -5.2514003771156936e-01  8.5030485860650562e-01
2.141141141141141e+00 -5.1934746637199636e-01  8.5387246753972612e-01 -2.9349031872645818e-02 -1.7850845322894111e-02 -2.9349031872645818e-02 -1.7850845322894111e-02 -5.1934746637199636e-01  8.5387246753972612e-01
2.142642642642643e+00 -5.1357309311631316e-01  8.5737513175462798e-01 -2.9098847058544961e-02 -1.7430392294434306e-02 -2.9098847058544961e-02 -1.7430392294434306e-02 -5.1357309311631316e-01  8.5737513175462798e-01
2.144144144144144e+00 -5.0781719718062390e-01  8.6081383038840065e-01 -2.8840504141114619e-02 -1.7013787954137351e-02 -2.8840504141114619e-02 -1.7013787954137351e-02 -5.0781719718062390e-01  8.6081383038840065e-01
2.145645645645646e+00 -5.0208004505607373e-01  8.6418952709536034e-01 -2.8574287588468361e-02 -1.6601195860454242e-02 -2.8574287588468361e-02 -1.6601195860454242e-02 -5.0208004505607373e-01  8.6418952709536034e-01
2.147147147147147e+00 -4.9636189089141530e-01  8.6750317032531654e-01 -2.8300476815532879e-02 -1.6192768701950435e-02 -2.8300476815532879e-02 -1.6192768701950435e-02 -4.9636189089141530e-01  8.6750317032531654e-01
2.148648648648649e+00 -4.9066297688215277e-01  8.7075569359527716e-01 -2.8019346157600405e-02 -1.5788648753148150e-02 -2.8019346157600405e-02 -1.5788648753148150e-02 -4.9066297688215277e-01  8.7075569359527716e-01
2.150150150150151e+00 -4.8498353364680441e-01  8.7394801575472048e-01 -2.7731164852586265e-02 -1.5388968313790354e-02 -2.7731164852586265e-02 -1.5388968313790354e-02 -4.8498353364680441e-01  8.7394801575472048e-01
2.151651651651652e+00 -4.7932378059083025e-01  8.7708104124464237e-01 -2.7436197031358814e-02 -1.4993850132074271e-02 -2.7436197031358814e-02 -1.4993850132074271e-02 -4.7932378059083025e-01  8.7708104124464237e-01
2.153153153153153e+00 -4.7368392625868416e-01  8.8015566035061654e-01 -2.7134701715546421e-02 -1.4603407812384100e-02 -2.7134701715546421e-02 -1.4603407812384100e-02 -4.7368392625868416e-01  8.8015566035061654e-01
2.154654654654655e+00 -4.6806416867453693e-01  8.8317274945003066e-01 -2.6826932822264914e-02 -1.4217746208044123e-02 -2.6826932822264914e-02 -1.4217746208044123e-02 -4.6806416867453693e-01  8.8317274945003066e-01
2.156156156156156e+00 -4.6246469567200726e-01  8.8613317125374924e-01 -2.6513139175235390e-02 -1.3836961799586770e-02 -2.6513139175235390e-02 -1.3836961799586770e-02 -4.6246469567200726e-01  8.8613317125374924e-01
2.157657657657658e+00 -4.5688568521343803e-01  8.8903777504233850e-01 -2.6193564521804207e-02 -1.3461143059030302e-02 -2.6193564521804207e-02 -1.3461143059030302e-02 -4.5688568521343803e-01  8.8903777504233850e-01
2.159159159159159e+00 -4.5132730569904472e-01  8.9188739689706031e-01 -2.5868447555397592e-02 -1.3090370800633876e-02 -2.5868447555397592e-02 -1.3090370800633876e-02 -4.5132730569904472e-01  8.9188739689706031e-01
2.160660660660661e+00 -4.4578971626634945e-01  8.9468285992581176e-01 -2.5538021942976639e-02 -1.2724718518590361e-02 -2.5538021942976639e-02 -1.2724718518590361e-02 -4.4578971626634945e-01  8.9468285992581176e-01
2.162162162162162e+00 -4.4027306708026775e-01  8.9742497448414804e-01 -2.5202516357084599e-02 -1.2364252712102624e-02 -2.5202516357084599e-02 -1.2364252712102624e-02 -4.4027306708026775e-01  8.9742497448414804e-01
2.163663663663664e+00 -4.3477749961417034e-01  9.0011453839159106e-01 -2.4862154512100172e-02 -1.2009033198272201e-02 -2.4862154512100172e-02 -1.2009033198272201e-02 -4.3477749961417034e-01  9.0011453839159106e-01
2.165165165165165e+00 -4.2930314692229965e-01  9.0275233714331216e-01 -2.4517155204340592e-02 -1.1659113413222840e-02 -2.4517155204340592e-02 -1.1659113413222840e-02 -4.2930314692229965e-01  9.0275233714331216e-01
2.166666666666667e+00 -4.2385013390378912e-01  9.0533914411740157e-01 -2.4167732355671365e-02 -1.1314540701858685e-02 -2.4167732355671365e-02 -1.1314540701858685e-02 -4.2385013390378912e-01  9.0533914411740157e-01
2.168168168168168e+00 -4.1841857755865253e-01  9.0787572077780965e-01 -2.3814095060311301e-02 -1.0975356596655373e-02 -2.3814095060311301e-02 -1.0975356596655373e-02 -4.1841857755865253e-01  9.0787572077780965e-01
2.169669669669670e+00 -4.1300858723596284e-01  9.1036281687313148e-01 -2.3456447634529611e-02 -1.0641597085858899e-02 -2.3456447634529611e-02 -1.0641597085858899e-02 -4.1300858723596284e-01  9.1036281687313148e-01
2.171171171171171e+00 -4.0762026487456676e-01  9.1280117063132848e-01 -2.3094989668962812e-02 -1.0313292871466113e-02 -2.3094989668962812e-02 -1.0313292871466113e-02 -4.0762026487456676e-01  9.1280117063132848e-01
2.172672672672673e+00 -4.0225370523651910e-01  9.1519150895053702e-01 -2.2729916083284687e-02 -9.9904696173383906e-03 -2.2729916083284687e-02 -9.9904696173383906e-03 -4.0225370523651910e-01  9.1519150895053702e-01
2.174174174174174e+00 -3.9690899613355868e-01  9.1753454758605890e-01 -2.2361417182990041e-02 -9.6731481877981619e-03 -2.2361417182990041e-02 -9.6731481877981619e-03 -3.9690899613355868e-01  9.1753454758605890e-01
2.175675675675675e+00 -3.9158621864680421e-01  9.1983099133366064e-01 -2.1989678718058996e-02 -9.3613448770387374e-03 -2.1989678718058996e-02 -9.3613448770387374e-03 -3.9158621864680421e-01  9.1983099133366064e-01
2.177177177177178e+00 -3.8628544733992226e-01  9.2208153420928707e-01 -2.1614881943290587e-02 -9.0550716296727216e-03 -2.1614881943290587e-02 -9.0550716296727216e-03 -3.8628544733992226e-01  9.2208153420928707e-01
2.178678678678679e+00 -3.8100675046601756e-01  9.2428685962527246e-01 -2.1237203680106231e-02 -8.7543362527329610e-03 -2.1237203680106231e-02 -8.7543362527329610e-03 -3.8100675046601756e-01  9.2428685962527246e-01
2.180180180180180e+00 -3.7575019016837302e-01  9.2644764056317808e-01 -2.0856816379631698e-02 -8.4591426194247140e-03 -2.0856816379631698e-02 -8.4591426194247140e-03 -3.7575019016837302e-01  9.2644764056317808e-01
2.181681681681682e+00 -3.7051582267533550e-01  9.2856453974332687e-01 -2.0473888186888528e-02 -8.1694908649265537e-03 -2.0473888186888528e-02 -8.1694908649265537e-03 -3.7051582267533550e-01  9.2856453974332687e-01
2.183183183183183e+00 -3.6530369848946065e-01  9.3063820979113054e-01 -2.0088583005927332e-02 -7.8853775745193148e-03 -2.0088583005927332e-02 -7.8853775745193148e-03 -3.6530369848946065e-01  9.3063820979113054e-01
2.184684684684685e+00 -3.6011386257114797e-01  9.3266929340030724e-01 -1.9701060565753319e-02 -7.6067959643188344e-03 -1.9701060565753319e-02 -7.6067959643188344e-03 -3.6011386257114797e-01  9.3266929340030724e-01
2.186186186186186e+00 -3.5494635451692658e-01  9.3465842349305084e-01 -1.9311476486901090e-02 -7.3337360548763600e-03 -1.9311476486901090e-02 -7.3337360548763600e-03 -3.5494635451692658e-01  9.3465842349305084e-01
2.187687687687688e+00 -3.4980120873254761e-01  9.3660622337726007e-01 -1.8919982348526355e-02 -7.0661848379019324e-03 -1.8919982348526355e-02 -7.0661848379019324e-03 -3.4980120873254761e-01  9.3660622337726007e-01
2.189189189189189e+00 -3.4467845460108826e-01  9.3851330690087054e-01 -1.8526725755893869e-02 -6.8041264363598022e-03 -1.8526725755893869e-02 -6.8041264363598022e-03 -3.4467845460108826e-01  9.3851330690087054e-01
2.190690690690691e+00 -3.3957811664615839e-01  9.4038027860339579e-01 -1.8131850408142889e-02 -6.5475422581717348e-03 -1.8131850408142889e-02 -6.5475422581717348e-03 -3.3957811664615839e-01  9.4038027860339579e-01
2.192192192192192e+00 -3.3450021469043562e-01  9.4220773386472312e-01 -1.7735496166229187e-02 -6.2964111437625045e-03 -1.7735496166229187e-02 -6.2964111437625045e-03 -3.3450021469043562e-01  9.4220773386472312e-01
2.193693693693694e+00 -3.2944476400959938e-01  9.4399625905124951e-01 -1.7337799120939749e-02 -6.0507095076673782e-03 -1.7337799120939749e-02 -6.0507095076673782e-03 -3.2944476400959938e-01  9.4399625905124951e-01
2.195195195195195e+00 -3.2441177548187478e-01  9.4574643165940342e-01 -1.6938891660894063e-02 -5.8104114744202085e-03 -1.6938891660894063e-02 -5.8104114744202085e-03 -3.2441177548187478e-01  9.4574643165940342e-01
2.196696696696697e+00 -3.1940125573325728e-01  9.4745882045663898e-01 -1.6538902540442504e-02 -5.5754890089273835e-03 -1.6538902540442504e-02 -5.5754890089273835e-03 -3.1940125573325728e-01  9.4745882045663898e-01
2.198198198198198e+00 -3.1441320727858879e-01  9.4913398561994311e-01 -1.6137956947386737e-02 -5.3459120415306691e-03 -1.6137956947386737e-02 -5.3459120415306691e-03 -3.1441320727858879e-01  9.4913398561994311e-01
2.199699699699699e+00 -3.0944762865858916e-01  9.5077247887192218e-01 -1.5736176570448509e-02 -5.1216485879521456e-03 -1.5736176570448509e-02 -5.1216485879521456e-03 -3.0944762865858916e-01  9.5077247887192218e-01
2.201201201201202e+00 -3.0450451457297728e-01  9.5237484361452485e-01 -1.5333679666420724e-02 -4.9026648643092797e-03 -1.5333679666420724e-02 -4.9026648643092797e-03 -3.0450451457297728e-01  9.5237484361452485e-01
2.202702702702703e+00 -2.9958385600979753e-01  9.5394161506044417e-01 -1.4930581126940354e-02 -4.6889253973813518e-03 -1.4930581126940354e-02 -4.6889253973813518e-03 -2.9958385600979753e-01  9.5394161506044417e-01
2.204204204204204e+00 -2.9468564037102563e-01  9.5547332036227861e-01 -1.4526992544822804e-02 -4.4803931303001449e-03 -1.4526992544822804e-02 -4.4803931303001449e-03 -2.9468564037102563e-01  9.5547332036227861e-01
2.205705705705706e+00 -2.8980985159463685e-01  9.5697047873945740e-01 -1.4123022279913213e-02 -4.2770295238373276e-03 -1.4123022279913213e-02 -4.2770295238373276e-03 -2.8980985159463685e-01  9.5697047873945740e-01
2.207207207207207e+00 -2.8495647027315796e-01  9.5843360160302560e-01 -1.3718775524399670e-02 -4.0787946534473632e-03 -1.3718775524399670e-02 -4.0787946534473632e-03 -2.8495647027315796e-01  9.5843360160302560e-01
2.208708708708709e+00 -2.8012547376886593e-01  9.5986319267830211e-01 -1.3314354367550938e-02 -3.8856473022263081e-03 -1.3314354367550938e-02 -3.8856473022263081e-03 -2.8012547376886593e-01  9.5986319267830211e-01
2.210210210210211e+00 -2.7531683632570408e-01  9.6125974812547221e-01 -1.2909857859837077e-02 -3.6975450499368337e-03 -1.2909857859837077e-02 -3.6975450499368337e-03 -2.7531683632570408e-01  9.6125974812547221e-01
2.211711711711712e+00 -2.7053052917800585e-01  9.6262375665814659e-01 -1.2505382076397150e-02 -3.5144443582460815e-03 -1.2505382076397150e-02 -3.5144443582460815e-03 -2.7053052917800585e-01  9.6262375665814659e-01
2.213213213213213e+00 -2.6576652065613321e-01  9.6395569965994587e-01 -1.2101020179822834e-02 -3.3363006523180381e-03 -1.2101020179822834e-02 -3.3363006523180381e-03 -2.6576652065613321e-01  9.6395569965994587e-01
2.214714714714715e+00 -2.6102477628909404e-01  9.6525605129913716e-01 -1.1696862482227476e-02 -3.1630683988962969e-03 -1.1696862482227476e-02 -3.1630683988962969e-03 -2.6102477628909404e-01  9.6525605129913716e-01
2.216216216216216e+00 -2.5630525890427125e-01  9.6652527864135640e-01 -1.1292996506578067e-02 -2.9947011810102430e-03 -1.1292996506578067e-02 -2.9947011810102430e-03 -2.5630525890427125e-01  9.6652527864135640e-01
2.217717717717718e+00 -2.5160792872427423e-01  9.6776384176048103e-01 -1.0889507047261129e-02 -2.8311517694291728e-03 -1.0889507047261129e-02 -2.8311517694291728e-03 -2.5160792872427423e-01  9.6776384176048103e-01
2.219219219219219e+00 -2.4693274346106403e-01  9.6897219384765843e-01 -1.0486476229868551e-02 -2.6723721909896110e-03 -1.0486476229868551e-02 -2.6723721909896110e-03 -2.4693274346106403e-01  9.6897219384765843e-01
2.220720720720721e+00 -2.4227965840738108e-01  9.7015078131854982e-01 -1.0083983570180035e-02 -2.5183137939118502e-03 -1.0083983570180035e-02 -2.5183137939118502e-03 -2.4227965840738108e-01  9.7015078131854982e-01
2.222222222222222e+00 -2.3764862652557328e-01  9.7130004391881097e-01 -9.6821060323295308e-03 -2.3689273102209525e-03 -9.6821060323295308e-03 -2.3689273102209525e-03 -2.3764862652557328e-01  9.7130004391881097e-01
2.223723723723724e+00 -2.3303959853389603e-01  9.7242041482784758e-01 -9.2809180861412634e-03 -2.2241629153818519e-03 -9.2809180861412634e-03 -2.2241629153818519e-03 -2.3303959853389603e-01  9.7242041482784758e-01
2.225225225225226e+00 -2.2845252299033272e-01  9.7351232076088123e-01 -8.8804917636221576e-03 -2.0839702852540149e-03 -8.8804917636221576e-03 -2.0839702852540149e-03 -2.2845252299033272e-01  9.7351232076088123e-01
2.226726726726727e+00 -2.2388734637405472e-01  9.7457618206934826e-01 -8.4808967146052204e-03 -1.9482986504694706e-03 -8.4808967146052204e-03 -1.9482986504694706e-03 -2.2388734637405472e-01  9.7457618206934826e-01
2.228228228228229e+00 -2.1934401316450872e-01  9.7561241283968025e-01 -8.0822002615292925e-03 -1.8170968483304777e-03 -8.0822002615292925e-03 -1.8170968483304777e-03 -2.1934401316450872e-01  9.7561241283968025e-01
2.229729729729730e+00 -2.1482246591829304e-01  9.7662142099046945e-01 -7.6844674533571994e-03 -1.6903133723248213e-03 -7.6844674533571994e-03 -1.6903133723248213e-03 -2.1482246591829304e-01  9.7662142099046945e-01
2.231231231231231e+00 -2.1032264534378062e-01  9.7760360836807947e-01 -7.2877611186184495e-03 -1.5678964193473707e-03 -7.2877611186184495e-03 -1.5678964193473707e-03 -2.1032264534378062e-01  9.7760360836807947e-01
2.232732732732733e+00 -2.0584449037364855e-01  9.7855937084070010e-01 -6.8921419175819038e-03 -1.4497939347192252e-03 -6.8921419175819038e-03 -1.4497939347192252e-03 -2.0584449037364855e-01  9.7855937084070010e-01
2.234234234234235e+00 -2.0138793823529064e-01  9.7948909839089893e-01 -6.4976683935489684e-03 -1.3359536550872539e-03 -6.4976683935489684e-03 -1.3359536550872539e-03 -2.0138793823529064e-01  9.7948909839089893e-01
2.235735735735736e+00 -1.9695292451923110e-01  9.8039317520668023e-01 -6.1043970232721387e-03 -1.2263231492880187e-03 -6.1043970232721387e-03 -1.2263231492880187e-03 -1.9695292451923110e-01  9.8039317520668023e-01
2.237237237237237e+00 -1.9253938324555561e-01  9.8127197977108160e-01 -5.7123822664953625e-03 -1.1208498572541012e-03 -5.7123822664953625e-03 -1.1208498572541012e-03 -1.9253938324555561e-01  9.8127197977108160e-01
2.238738738738739e+00 -1.8814724692842330e-01  9.8212588495034259e-01 -5.3216766146191152e-03 -1.0194811270396187e-03 -5.3216766146191152e-03 -1.0194811270396187e-03 -1.8814724692842330e-01  9.8212588495034259e-01
2.240240240240240e+00 -1.8377644663874551e-01  9.8295525808065265e-01 -4.9323306384946707e-03 -9.2216425003913073e-04 -4.9323306384946707e-03 -9.2216425003913073e-04 -1.8377644663874551e-01  9.8295525808065265e-01
2.241741741741742e+00 -1.7942691206500450e-01  9.8376046105352477e-01 -4.5443930353447530e-03 -8.2884649446920348e-04 -4.5443930353447530e-03 -8.2884649446920348e-04 -1.7942691206500450e-01  9.8376046105352477e-01
2.243243243243243e+00 -1.7509857157235678e-01  9.8454185039979858e-01 -4.1579106748226837e-03 -7.3947513718311238e-04 -4.1579106748226837e-03 -7.3947513718311238e-04 -1.7509857157235678e-01  9.8454185039979858e-01
2.244744744744745e+00 -1.7079135225999142e-01  9.8529977737231089e-01 -3.7729286442079466e-03 -6.5399749388275860e-04 -3.7729286442079466e-03 -6.5399749388275860e-04 -1.7079135225999142e-01  9.8529977737231089e-01
2.246246246246247e+00 -1.6650518001683542e-01  9.8603458802724553e-01 -3.3894902927482018e-03 -5.7236094779239302e-04 -3.3894902927482018e-03 -5.7236094779239302e-04 -1.6650518001683542e-01  9.8603458802724553e-01
2.247747747747748e+00 -1.6223997957563199e-01  9.8674662330419671e-01 -3.0076372751515288e-03 -4.9451297685471139e-04 -3.0076372751515288e-03 -4.9451297685471139e-04 -1.6223997957563199e-01  9.8674662330419671e-01
2.249249249249250e+00 -1.5799567456542971e-01  9.8743621910495327e-01 -2.6274095942360638e-03 -4.2040117950837143e-04 -2.6274095942360638e-03 -4.2040117950837143e-04 -1.5799567456542971e-01  9.8743621910495327e-01
2.250750750750750e+00 -1.5377218756256777e-01  9.8810370637103961e-01 -2.2488456427470259e-03 -3.4997329910419850e-04 -2.2488456427470259e-03 -3.4997329910419850e-04 -1.5377218756256777e-01  9.8810370637103961e-01
2.252252252252253e+00 -1.4956944014012094e-01  9.8874941116002313e-01 -1.8719822443433124e-03 -2.8317724701366345e-04 -1.8719822443433124e-03 -2.8317724701366345e-04 -1.4956944014012094e-01  9.8874941116002313e-01
2.253753753753754e+00 -1.4538735291593732e-01  9.8937365472061389e-01 -1.4968546937690929e-03 -2.1996112448369035e-04 -1.4968546937690929e-03 -2.1996112448369035e-04 -1.4538735291593732e-01  9.8937365472061389e-01
2.255255255255255e+00 -1.4122584559921994e-01  9.8997675356657733e-01 -1.1234967962116731e-03 -1.6027324328715908e-04 -1.1234967962116731e-03 -1.6027324328715908e-04 -1.4122584559921994e-01  9.8997675356657733e-01
2.256756756756757e+00 -1.3708483703577015e-01  9.9055901954947589e-01 -7.5194090586190392e-04 -1.0406214521926319e-04 -7.5194090586190392e-04 -1.0406214521926319e-04 -1.3708483703577015e-01  9.9055901954947589e-01
2.258258258258258e+00 -1.3296424525186382e-01  9.9112075993026039e-01 -3.8221796368026500e-04 -5.1276620485708253e-05 -3.8221796368026500e-04 -5.1276620485708253e-05 -1.3296424525186382e-01  9.9112075993026039e-01
2.259759759759760e+00 -1.2886398749684155e-01  9.9166227744973368e-01 -1.4357534382750200e-05 -1.8657250288296632e-06 -1.4357534382750200e-05 -1.8657250288296632e-06 -1.2886398749684155e-01  9.9166227744973368e-01
2.261261261261261e+00 -1.2478398028441996e-01  9.9218387039789757e-01  3.5161215734672745e-04  4.4221203165216606e-05  3.5161215734672745e-04  4.4221203165216606e-05 -1.2478398028441996e-01  9.9218387039789757e-01
2.262762762762763e+00 -1.2072413943277775e-01  9.9268583268220856e-01  7.1566419140463191e-04  8.7034528735777485e-05  7.1566419140463191e-04  8.7034528735777485e-05 -1.2072413943277775e-01  9.9268583268220856e-01
2.264264264264264e+00 -1.1668438010344874e-01  9.9316845389475394e-01  1.0777729175674806e-03  1.2662430455324719e-04  1.0777729175674806e-03  1.2662430455324719e-04 -1.1668438010344874e-01  9.9316845389475394e-01
2.265765765765766e+00 -1.1266461683902144e-01  9.9363201937837276e-01  1.4379139215343825e-03  1.6304025822206931e-04  1.4379139215343825e-03  1.6304025822206931e-04 -1.1266461683902144e-01  9.9363201937837276e-01
2.267267267267267e+00 -1.0866476359973873e-01  9.9407681029173045e-01  1.7960639916972769e-03  1.9633177944319185e-04  1.7960639916972769e-03  1.9633177944319185e-04 -1.0866476359973873e-01  9.9407681029173045e-01
2.268768768768769e+00 -1.0468473379896320e-01  9.9450310367337069e-01  2.1522010866327351e-03  2.2654790820037982e-04  2.1522010866327351e-03  2.2654790820037982e-04 -1.0468473379896320e-01  9.9450310367337069e-01
2.270270270270271e+00 -1.0072444033758317e-01  9.9491117250475647e-01  2.5063043033015436e-03  2.5373732373531804e-04  2.5063043033015436e-03  2.5373732373531804e-04 -1.0072444033758317e-01  9.9491117250475647e-01
2.271771771771772e+00 -9.6783795637366957e-02  9.9530128577232224e-01  2.8583538459460186e-03  2.7794833427815364e-04  2.8583538459460186e-03  2.7794833427815364e-04 -9.6783795637366957e-02  9.9530128577232224e-01
2.273273273273273e+00 -9.2862711673299028e-02  9.9567370852854575e-01  3.2083309956744575e-03  2.9922886750130919e-04  3.2083309956744575e-03  2.9922886750130919e-04 -9.2862711673299028e-02  9.9567370852854575e-01
2.274774774774775e+00 -8.8961100004940535e-02  9.9602870195205884e-01  3.5562180807194484e-03  3.1762646166544686e-04  3.5562180807194484e-03  3.1762646166544686e-04 -8.8961100004940535e-02  9.9602870195205884e-01
2.276276276276277e+00 -8.5078871806793105e-02  9.9636652340681520e-01  3.9019984473639144e-03  3.3318825742806920e-04  3.9019984473639144e-03  3.3318825742806920e-04 -8.5078871806793105e-02  9.9636652340681520e-01
2.277777777777778e+00 -8.1215937897768042e-02  9.9668742650032627e-01  4.2456564315163630e-03  3.4596099028563363e-04  4.2456564315163630e-03  3.4596099028563363e-04 -8.1215937897768042e-02  9.9668742650032627e-01
2.279279279279280e+00 -7.7372208769707795e-02  9.9699166114097948e-01  4.5871773309322031e-03  3.5599098362204843e-04  4.5871773309322031e-03  3.5599098362204843e-04 -7.7372208769707795e-02  9.9699166114097948e-01
2.280780780780781e+00 -7.3547594615044495e-02  9.9727947359445790e-01  4.9265473780631640e-03  3.6332414233659731e-04  4.9265473780631640e-03  3.6332414233659731e-04 -7.3547594615044495e-02  9.9727947359445790e-01
2.282282282282282e+00 -6.9742005353585976e-02  9.9755110653927193e-01  5.2637537135285257e-03  3.6800594702604550e-04  5.2637537135285257e-03  3.6800594702604550e-04 -6.9742005353585976e-02  9.9755110653927193e-01
2.283783783783784e+00 -6.5955350658457423e-02  9.9780679912141679e-01  5.5987843601949753e-03  3.7008144869617480e-04  5.5987843601949753e-03  3.7008144869617480e-04 -6.5955350658457423e-02  9.9780679912141679e-01
2.285285285285285e+00 -6.2187539981244010e-02  9.9804678700817584e-01  5.9316281978537165e-03  3.6959526397922250e-04  5.9316281978537165e-03  3.6959526397922250e-04 -6.2187539981244010e-02  9.9804678700817584e-01
2.286786786786787e+00 -5.8438482576312782e-02  9.9827130244107065e-01  6.2622749384863884e-03  3.6659157083444253e-04  6.2622749384863884e-03  3.6659157083444253e-04 -5.8438482576312782e-02  9.9827130244107065e-01
2.288288288288288e+00 -5.4708087524394565e-02  9.9848057428798698e-01  6.5907151021047782e-03  3.6111410470996471e-04  6.5907151021047782e-03  3.6111410470996471e-04 -5.4708087524394565e-02  9.9848057428798698e-01
2.289789789789790e+00 -5.0996263755381459e-02  9.9867482809447705e-01  6.9169399931586842e-03  3.5320615514492252e-04  6.9169399931586842e-03  3.5320615514492252e-04 -5.0996263755381459e-02  9.9867482809447705e-01
2.291291291291291e+00 -4.7302920070421361e-02  9.9885428613425831e-01  7.2409416774962786e-03  3.4291056279168747e-04  7.2409416774962786e-03  3.4291056279168747e-04 -4.7302920070421361e-02  9.9885428613425831e-01
2.292792792792793e+00 -4.3627965163280547e-02  9.9901916745891850e-01  7.5627129598702016e-03  3.3026971683871621e-04  7.5627129598702016e-03  3.3026971683871621e-04 -4.3627965163280547e-02  9.9901916745891850e-01
2.294294294294295e+00 -3.9971307641030310e-02  9.9916968794683980e-01  7.8822473619764005e-03  3.1532555281542970e-04  7.8822473619764005e-03  3.1532555281542970e-04 -3.9971307641030310e-02  9.9916968794683980e-01
2.295795795795796e+00 -3.6332856044049677e-02  9.9930606035135472e-01  8.1995391010167666e-03  2.9811955076110893e-04  8.1995391010167666e-03  2.9811955076110893e-04 -3.6332856044049677e-02  9.9930606035135472e-01
2.297297297297298e+00 -3.2712518865376461e-02  9.9942849434814784e-01  8.5145830687748270e-03  2.7869273374057403e-04  8.5145830687748270e-03  2.7869273374057403e-04 -3.2712518865376461e-02  9.9942849434814784e-01
2.298798798798799e+00 -2.9110204569435916e-02  9.9953719658191131e-01  8.8273748111930041e-03  2.5708566669020022e-04  8.8273748111930041e-03  2.5708566669020022e-04 -2.9110204569435916e-02  9.9953719658191131e-01
2.300300300300301e+00 -2.5525821610118543e-02  9.9963237071226940e-01  9.1379105084452225e-03  2.3333845557802456e-04  9.1379105084452225e-03  2.3333845557802456e-04 -2.5525821610118543e-02  9.9963237071226940e-01
2.301801801801802e+00 -2.1959278448302491e-02  9.9971421745897993e-01  9.4461869554886609e-03  2.0749074686317488e-04  9.4461869554886609e-03  2.0749074686317488e-04 -2.1959278448302491e-02  9.9971421745897993e-01
2.303303303303303e+00 -1.8410483568739901e-02  9.9978293464643087e-01  9.7522015430924446e-03  1.7958172723926170e-04  9.7522015430924446e-03  1.7958172723926170e-04 -1.8410483568739901e-02  9.9978293464643087e-01
2.304804804804805e+00 -1.4879345496415078e-02  9.9983871724743567e-01  1.0055952239326413e-02  1.4965012364824993e-04  1.0055952239326413e-02  1.4965012364824993e-04 -1.4879345496415078e-02  9.9983871724743567e-01
2.306306306306306e+00 -1.1365772812329443e-02  9.9988175742634011e-01  1.0357437571505323e-02  1.1773420355085020e-04  1.0357437571505323e-02  1.1773420355085020e-04 -1.1365772812329443e-02  9.9988175742634011e-01
2.307807807807808e+00 -7.8696741687512180e-03  9.9991224458145778e-01  1.0656656608576884e-02  8.3871775440527013e-05  1.0656656608576884e-02  8.3871775440527013e-05 -7.8696741687512180e-03  9.9991224458145778e-01
2.309309309309309e+00 -4.3909583039488265e-03  9.9993036538683344e-01  1.0953608943944457e-02  4.8100189588715092e-05  1.0953608943944457e-02  4.8100189588715092e-05 -4.3909583039488265e-03  9.9993036538683344e-01
2.310810810810811e+00 -9.2953405639771179e-04  9.9993630383336018e-01  1.1248294678716946e-02  1.0456339008976107e-05  1.1248294678716946e-02  1.0456339008976107e-05 -9.2953405639771179e-04  9.9993630383336018e-01
2.312312312312312e+00  2.5146896214753639e-03  9.9993024126924257e-01  1.1540714405373076e-02 -2.9023339370920671e-05  1.1540714405373076e-02 -2.9023339370920671e-05  2.5146896214753639e-03  9.9993024126924257e-01
2.313813813813814e+00  5.9418036500652402e-03  9.9991235643983123e-01  1.1830869191836246e-02 -7.0302863340731755e-05  1.1830869191836246e-02 -7.0302863340731755e-05  5.9418036500652402e-03  9.9991235643983123e-01
2.315315315315315e+00  9.3518988097999415e-03  9.9988282552683128e-01  1.2118760565946506e-02 -1.1334670385323466e-04  1.2118760565946506e-02 -1.1334670385323466e-04  9.3518988097999415e-03  9.9988282552683128e-01
2.316816816816817e+00  1.2745065728826327e-02  9.9984182218689788e-01  1.2404390500324745e-02 -1.5811978329419597e-04  1.2404390500324745e-02 -1.5811978329419597e-04  1.2745065728826327e-02  9.9984182218689788e-01
2.318318318318318e+00  1.6121394871121169e-02  9.9978951758962264e-01  1.2687761397617460e-02 -2.0458747358613472e-04  1.2687761397617460e-02 -2.0458747358613472e-04  1.6121394871121169e-02  9.9978951758962264e-01
2.319819819819820e+00  1.9480976525044949e-02  9.9972608045493128e-01  1.2968876076116381e-02 -2.5271559413561715e-04  1.2968876076116381e-02 -2.5271559413561715e-04  1.9480976525044949e-02  9.9972608045493128e-01
2.321321321321322e+00  2.2823900792301913e-02  9.9965167708988922e-01  1.3247737755743182e-02 -3.0247040963282245e-04  1.3247737755743182e-02 -3.0247040963282245e-04  2.2823900792301913e-02  9.9965167708988922e-01
2.322822822822823e+00  2.6150257577317197e-02  9.9956647142493416e-01  1.3524350044392177e-02 -3.5381862771215883e-04  1.3524350044392177e-02 -3.5381862771215883e-04  2.6150257577317197e-02  9.9956647142493416e-01
2.324324324324325e+00  2.9460136576996112e-02  9.9947062504954221e-01  1.3798716924621993e-02 -4.0672739648203553e-04  1.3798716924621993e-02 -4.0672739648203553e-04  2.9460136576996112e-02  9.9947062504954221e-01
2.325825825825826e+00  3.2753627270871825e-02  9.9936429724733145e-01  1.4070842740689316e-02 -4.6116430193176086e-04  1.4070842740689316e-02 -4.6116430193176086e-04  3.2753627270871825e-02  9.9936429724733145e-01
2.327327327327327e+00  3.6030818911631346e-02  9.9924764503062125e-01  1.4340732185917606e-02 -5.1709736522338040e-04  1.4340732185917606e-02 -5.1709736522338040e-04  3.6030818911631346e-02  9.9924764503062125e-01
2.328828828828829e+00  3.9291800515990842e-02  9.9912082317444628e-01  1.4608390290391262e-02 -5.7449503987524325e-04  1.4608390290391262e-02 -5.7449503987524325e-04  3.9291800515990842e-02  9.9912082317444628e-01
2.330330330330331e+00  4.2536660855928901e-02  9.9898398425004120e-01  1.4873822408969950e-02 -6.3332620884472106e-04  1.4873822408969950e-02 -6.3332620884472106e-04  4.2536660855928901e-02  9.9898398425004120e-01
2.331831831831832e+00  4.5765488450266824e-02  9.9883727865779948e-01  1.5137034209615164e-02 -6.9356018151658493e-04  1.5137034209615164e-02 -6.9356018151658493e-04  4.5765488450266824e-02  9.9883727865779948e-01
2.333333333333333e+00  4.8978371556566334e-02  9.9868085465972112e-01  1.5398031662021135e-02 -7.5516669060328879e-04  1.5398031662021135e-02 -7.5516669060328879e-04  4.8978371556566334e-02  9.9868085465972112e-01
2.334834834834835e+00  5.2175398163369940e-02  9.9851485841134446e-01  1.5656821026544959e-02 -8.1811588896364435e-04  1.5656821026544959e-02 -8.1811588896364435e-04  5.2175398163369940e-02  9.9851485841134446e-01
2.336336336336336e+00  5.5356655982724816e-02  9.9833943399319092e-01  1.5913408843426163e-02 -8.8237834634507465e-04  1.5913408843426163e-02 -8.8237834634507465e-04  5.5356655982724816e-02  9.9833943399319092e-01
2.337837837837838e+00  5.8522232443047252e-02  9.9815472344170608e-01  1.6167801922293307e-02 -9.4792504605610301e-04  1.6167801922293307e-02 -9.4792504605610301e-04  5.8522232443047252e-02  9.9815472344170608e-01
2.339339339339340e+00  6.1672214682247956e-02  9.9796086677972784e-01  1.6420007331946092e-02 -1.0147273815731507e-03  1.6420007331946092e-02 -1.0147273815731507e-03  6.1672214682247956e-02  9.9796086677972784e-01
2.340840840840841e+00  6.4806689541172469e-02  9.9775800204646947e-01  1.6670032390411184e-02 -1.0827571530880624e-03  1.6670032390411184e-02 -1.0827571530880624e-03  6.4806689541172469e-02  9.9775800204646947e-01
2.342342342342342e+00  6.7925743557300189e-02  9.9754626532704471e-01  1.6917884655261776e-02 -1.1519865640001624e-03  1.6917884655261776e-02 -1.1519865640001624e-03  6.7925743557300189e-02  9.9754626532704471e-01
2.343843843843844e+00  7.1029462958722173e-02  9.9732579078152139e-01  1.7163571914196912e-02 -1.2223882173582326e-03  1.7163571914196912e-02 -1.2223882173582326e-03  7.1029462958722173e-02  9.9732579078152139e-01
2.345345345345346e+00  7.4117933658381208e-02  9.9709671067353045e-01  1.7407102175873688e-02 -1.2939351122566271e-03  1.7407102175873688e-02 -1.2939351122566271e-03  7.4117933658381208e-02  9.9709671067353045e-01
2.346846846846847e+00  7.7191241248568798e-02  9.9685915539842540e-01  1.7648483660986772e-02 -1.3666006401899036e-03  1.7648483660986772e-02 -1.3666006401899036e-03  7.7191241248568798e-02  9.9685915539842540e-01
2.348348348348349e+00  8.0249470995669384e-02  9.9661325351099972e-01  1.7887724793589178e-02 -1.4403585813700069e-03  1.7887724793589178e-02 -1.4403585813700069e-03  8.0249470995669384e-02  9.9661325351099972e-01
2.349849849849850e+00  8.3292707835133387e-02  9.9635913175277779e-01  1.8124834192647640e-02 -1.5151831010096284e-03  1.8124834192647640e-02 -1.5151831010096284e-03  8.3292707835133387e-02  9.9635913175277779e-01
2.351351351351351e+00  8.6321036366708181e-02  9.9609691507887799e-01  1.8359820663829955e-02 -1.5910487455763345e-03  1.8359820663829955e-02 -1.5910487455763345e-03  8.6321036366708181e-02  9.9609691507887799e-01
2.352852852852853e+00  8.9334540849869012e-02  9.9582672668445604e-01  1.8592693191514766e-02 -1.6679304390198029e-03  1.8592693191514766e-02 -1.6679304390198029e-03  8.9334540849869012e-02  9.9582672668445604e-01
2.354354354354355e+00  9.2333305199488222e-02  9.9554868803074015e-01  1.8823460931021926e-02 -1.7458034789766333e-03  1.8823460931021926e-02 -1.7458034789766333e-03  9.2333305199488222e-02  9.9554868803074015e-01
2.355855855855856e+00  9.5317412981709523e-02  9.9526291887065688e-01  1.9052133201056261e-02 -1.8246435329553595e-03  1.9052133201056261e-02 -1.8246435329553595e-03  9.5317412981709523e-02  9.9526291887065688e-01
2.357357357357357e+00  9.8286947410035158e-02  9.9496953727406223e-01  1.9278719476360423e-02 -1.9044266345050187e-03  1.9278719476360423e-02 -1.9044266345050187e-03  9.8286947410035158e-02  9.9496953727406223e-01
2.358858858858859e+00  1.0124199134160704e-01  9.9466865965257745e-01  1.9503229380571259e-02 -1.9851291793699915e-03  1.9503229380571259e-02 -1.9851291793699915e-03  1.0124199134160704e-01  9.9466865965257745e-01
2.360360360360360e+00  1.0418262727368260e-01  9.9436040078404186e-01  1.9725672679274799e-02 -2.0667279216340009e-03  1.9725672679274799e-02 -2.0667279216340009e-03  1.0418262727368260e-01  9.9436040078404186e-01
2.361861861861863e+00  1.0710893734031683e-01  9.9404487383658102e-01  1.9946059273256780e-02 -2.1491999698564183e-03  1.9946059273256780e-02 -2.1491999698564183e-03  1.0710893734031683e-01  9.9404487383658102e-01
2.363363363363364e+00  1.1002100330919586e-01  9.9372219039230847e-01  2.0164399191940106e-02 -2.2325227832021635e-03  2.0164399191940106e-02 -2.2325227832021635e-03  1.1002100330919586e-01  9.9372219039230847e-01
2.364864864864865e+00  1.1291890657868836e-01  9.9339246047065088e-01  2.0380702587010007e-02 -2.3166741675694491e-03  2.0380702587010007e-02 -2.3166741675694491e-03  1.1291890657868836e-01  9.9339246047065088e-01
2.366366366366366e+00  1.1580272817502850e-01  9.9305579255131859e-01  2.0594979726216576e-02 -2.4016322717155224e-03  2.0594979726216576e-02 -2.4016322717155224e-03  1.1580272817502850e-01  9.9305579255131859e-01
2.367867867867868e+00  1.1867254874970369e-01  9.9271229359691604e-01  2.0807240987355730e-02 -2.4873755833847155e-03  2.0807240987355730e-02 -2.4873755833847155e-03  1.1867254874970369e-01  9.9271229359691604e-01
2.369369369369370e+00  1.2152844857697458e-01  9.9236206907520275e-01  2.1017496852419781e-02 -2.5738829254390427e-03  2.1017496852419781e-02 -2.5738829254390427e-03  1.2152844857697458e-01  9.9236206907520275e-01
2.370870870870871e+00  1.2437050755157218e-01  9.9200522298100979e-01  2.1225757901916564e-02 -2.6611334519946357e-03  2.1225757901916564e-02 -2.6611334519946357e-03  1.2437050755157218e-01  9.9200522298100979e-01
2.372372372372373e+00  1.2719880518654239e-01  9.9164185785781700e-01  2.1432034809351713e-02 -2.7491066445652183e-03  2.1432034809351713e-02 -2.7491066445652183e-03  1.2719880518654239e-01  9.9164185785781700e-01
2.373873873873874e+00  1.3001342061122859e-01  9.9127207481899415e-01  2.1636338335869174e-02 -2.8377823082142862e-03  2.1636338335869174e-02 -2.8377823082142862e-03  1.3001342061122859e-01  9.9127207481899415e-01
2.375375375375375e+00  1.3281443256941552e-01  9.9089597356871795e-01  2.1838679325048453e-02 -2.9271405677183220e-03  2.1838679325048453e-02 -2.9271405677183220e-03  1.3281443256941552e-01  9.9089597356871795e-01
2.376876876876877e+00  1.3560191941759847e-01  9.9051365242256062e-01  2.2039068697852288e-02 -3.0171618637419313e-03  2.2039068697852288e-02 -3.0171618637419313e-03  1.3560191941759847e-01  9.9051365242256062e-01
2.378378378378379e+00  1.3837595912338824e-01  9.9012520832776396e-01  2.2237517447722135e-02 -3.1078269490266274e-03  2.2237517447722135e-02 -3.1078269490266274e-03  1.3837595912338824e-01  9.9012520832776396e-01
2.379879879879880e+00  1.4113662926405629e-01  9.8973073688319901e-01  2.2434036635818107e-02 -3.1991168845950241e-03  2.2434036635818107e-02 -3.1991168845950241e-03  1.4113662926405629e-01  9.8973073688319901e-01
2.381381381381381e+00  1.4388400702519319e-01  9.8933033235901802e-01  2.2628637386398802e-02 -3.2910130359711017e-03  2.2628637386398802e-02 -3.2910130359711017e-03  1.4388400702519319e-01  9.8933033235901802e-01
2.382882882882883e+00  1.4661816919950249e-01  9.8892408771600127e-01  2.2821330882338564e-02 -3.3834970694185916e-03  2.2821330882338564e-02 -3.3834970694185916e-03  1.4661816919950249e-01  9.8892408771600127e-01
2.384384384384384e+00  1.4933919218569852e-01  9.8851209462460976e-01  2.3012128360777345e-02 -3.4765509481977114e-03  2.3012128360777345e-02 -3.4765509481977114e-03  1.4933919218569852e-01  9.8851209462460976e-01
2.385885885885886e+00  1.5204715198753613e-01  9.8809444348374142e-01  2.3201041108901931e-02 -3.5701569288425303e-03  2.3201041108901931e-02 -3.5701569288425303e-03  1.5204715198753613e-01  9.8809444348374142e-01
2.387387387387387e+00  1.5474212421293182e-01  9.8767122343919778e-01  2.3388080459852502e-02 -3.6642975574587393e-03  2.3388080459852502e-02 -3.6642975574587393e-03  1.5474212421293182e-01  9.8767122343919778e-01
2.388888888888889e+00  1.5742418407321798e-01  9.8724252240186949e-01  2.3573257788754506e-02 -3.7589556660442298e-03  2.3573257788754506e-02 -3.7589556660442298e-03  1.5742418407321798e-01  9.8724252240186949e-01
2.390390390390391e+00  1.6009340638247008e-01  9.8680842706563909e-01  2.3756584508869368e-02 -3.8541143688317313e-03  2.3756584508869368e-02 -3.8541143688317313e-03  1.6009340638247008e-01  9.8680842706563909e-01
2.391891891891892e+00  1.6274986555696258e-01  9.8636902292501094e-01  2.3938072067863723e-02 -3.9497570586560175e-03  2.3938072067863723e-02 -3.9497570586560175e-03  1.6274986555696258e-01  9.8636902292501094e-01
2.393393393393394e+00  1.6539363561470774e-01  9.8592439429246870e-01  2.4117731944193036e-02 -4.0458674033455044e-03  2.4117731944193036e-02 -4.0458674033455044e-03  1.6539363561470774e-01  9.8592439429246870e-01
2.394894894894895e+00  1.6802479017508787e-01  9.8547462431556720e-01  2.4295575643596010e-02 -4.1424293421389816e-03  2.4295575643596010e-02 -4.1424293421389816e-03  1.6802479017508787e-01  9.8547462431556720e-01
2.396396396396397e+00  1.7064340245859200e-01  9.8501979499376269e-01  2.4471614695698932e-02 -4.2394270821290367e-03  2.4471614695698932e-02 -4.2394270821290367e-03  1.7064340245859200e-01  9.8501979499376269e-01
2.397897897897898e+00  1.7324954528661990e-01  9.8455998719498428e-01  2.4645860650724327e-02 -4.3368450947314056e-03  2.4645860650724327e-02 -4.3368450947314056e-03  1.7324954528661990e-01  9.8455998719498428e-01
2.399399399399400e+00  1.7584329108139349e-01  9.8409528067195040e-01  2.4818325076304649e-02 -4.4346681121825993e-03  2.4818325076304649e-02 -4.4346681121825993e-03  1.7584329108139349e-01  9.8409528067195040e-01
2.400900900900901e+00  1.7842471186593553e-01  9.8362575407823782e-01  2.4989019554394927e-02 -4.5328811240646950e-03  2.4989019554394927e-02 -4.5328811240646950e-03  1.7842471186593553e-01  9.8362575407823782e-01
2.402402402402402e+00  1.8099387926413243e-01  9.8315148498410387e-01  2.5157955678284206e-02 -4.6314693738588875e-03  2.5157955678284206e-02 -4.6314693738588875e-03  1.8099387926413243e-01  9.8315148498410387e-01
2.403903903903904e+00  1.8355086450087593e-01  9.8267254989206509e-01  2.5325145049702361e-02 -4.7304183555280134e-03  2.5325145049702361e-02 -4.7304183555280134e-03  1.8355086450087593e-01  9.8267254989206509e-01
2.405405405405406e+00  1.8609573840227797e-01  9.8218902425224186e-01  2.5490599276019613e-02 -4.8297138101282468e-03  2.5490599276019613e-02 -4.8297138101282468e-03  1.8609573840227797e-01  9.8218902425224186e-01
2.406906906906907e+00  1.8862857139595798e-01  9.8170098247746462e-01  2.5654329967536756e-02 -4.9293417224506621e-03  2.5654329967536756e-02 -4.9293417224506621e-03  1.8862857139595798e-01  9.8170098247746462e-01
2.408408408408409e+00  1.9114943351139466e-01  9.8120849795814979e-01  2.5816348734863465e-02 -5.0292883176927348e-03  2.5816348734863465e-02 -5.0292883176927348e-03  1.9114943351139466e-01  9.8120849795814979e-01
2.409909909909910e+00  1.9365839438035609e-01  9.8071164307695491e-01  2.5976667186382904e-02 -5.1295400581606553e-03  2.5976667186382904e-02 -5.1295400581606553e-03  1.9365839438035609e-01  9.8071164307695491e-01
2.411411411411411e+00  1.9615552323737806e-01  9.8021048922320164e-01  2.6135296925799092e-02 -5.2300836400017304e-03  2.6135296925799092e-02 -5.2300836400017304e-03  1.9615552323737806e-01  9.8021048922320164e-01
2.412912912912913e+00  1.9864088892032469e-01  9.7970510680708467e-01  2.6292249549767017e-02 -5.3309059899686109e-03  2.6292249549767017e-02 -5.3309059899686109e-03  1.9864088892032469e-01  9.7970510680708467e-01
2.414414414414415e+00  2.0111455987098906e-01  9.7919556527366514e-01  2.6447536645600792e-02 -5.4319942622139111e-03  2.6447536645600792e-02 -5.4319942622139111e-03  2.0111455987098906e-01  9.7919556527366514e-01
2.415915915915916e+00  2.0357660413576500e-01  9.7868193311664753e-01  2.6601169789059811e-02 -5.5333358351167764e-03  2.6601169789059811e-02 -5.5333358351167764e-03  2.0357660413576500e-01  9.7868193311664753e-01
2.417417417417418e+00  2.0602708936637440e-01  9.7816427789195104e-01  2.6753160542210164e-02 -5.6349183081410223e-03  2.6753160542210164e-02 -5.6349183081410223e-03  2.0602708936637440e-01  9.7816427789195104e-01
2.418918918918919e+00  2.0846608282063789e-01  9.7764266623107232e-01  2.6903520451358680e-02 -5.7367294987247068e-03  2.6903520451358680e-02 -5.7367294987247068e-03  2.0846608282063789e-01  9.7764266623107232e-01
2.420420420420421e+00  2.1089365136331406e-01  9.7711716385424496e-01  2.7052261045059034e-02 -5.8387574392021139e-03  2.7052261045059034e-02 -5.8387574392021139e-03  2.1089365136331406e-01  9.7711716385424496e-01
2.421921921921922e+00  2.1330986146696856e-01  9.7658783558340612e-01  2.7199393832186301e-02 -5.9409903737569821e-03  2.7199393832186301e-02 -5.9409903737569821e-03  2.1330986146696856e-01  9.7658783558340612e-01
2.423423423423424e+00  2.1571477921291368e-01  9.7605474535495518e-01  2.7344930300080270e-02 -6.0434167554087159e-03  2.7344930300080270e-02 -6.0434167554087159e-03  2.1571477921291368e-01  9.7605474535495518e-01
2.424924924924925e+00  2.1810847029217104e-01  9.7551795623233228e-01  2.7488881912752991e-02 -6.1460252430297294e-03  2.7488881912752991e-02 -6.1460252430297294e-03  2.1810847029217104e-01  9.7551795623233228e-01
2.426426426426426e+00  2.2049100000650126e-01  9.7497753041839530e-01  2.7631260109161948e-02 -6.2488046983958673e-03  2.7631260109161948e-02 -6.2488046983958673e-03  2.2049100000650126e-01  9.7497753041839530e-01
2.427927927927928e+00  2.2286243326945751e-01  9.7443352926761873e-01  2.7772076301544102e-02 -6.3517441832682577e-03  2.7772076301544102e-02 -6.3517441832682577e-03  2.2286243326945751e-01  9.7443352926761873e-01
2.429429429429430e+00  2.2522283460749476e-01  9.7388601329810187e-01  2.7911341873811453e-02 -6.4548329565078978e-03  2.7911341873811453e-02 -6.4548329565078978e-03  2.2522283460749476e-01  9.7388601329810187e-01
2.430930930930931e+00  2.2757226816110757e-01  9.7333504220340106e-01  2.8049068180005007e-02 -6.5580604712219635e-03  2.8049068180005007e-02 -6.5580604712219635e-03  2.2757226816110757e-01  9.7333504220340106e-01
2.432432432432432e+00  2.2991079768601383e-01  9.7278067486418063e-01  2.8185266542806481e-02 -6.6614163719425270e-03  2.8185266542806481e-02 -6.6614163719425270e-03  2.2991079768601383e-01  9.7278067486418063e-01
2.433933933933934e+00  2.3223848655437324e-01  9.7222296935968600e-01  2.8319948252105855e-02 -6.7648904918373668e-03  2.8319948252105855e-02 -6.7648904918373668e-03  2.3223848655437324e-01  9.7222296935968600e-01
2.435435435435435e+00  2.3455539775603276e-01  9.7166198297905271e-01  2.8453124563622555e-02 -6.8684728499522965e-03  2.8453124563622555e-02 -6.8684728499522965e-03  2.3455539775603276e-01  9.7166198297905271e-01
2.436936936936937e+00  2.3686159389982178e-01  9.7109777223243532e-01  2.8584806697580581e-02 -6.9721536484862439e-03  2.8584806697580581e-02 -6.9721536484862439e-03  2.3686159389982178e-01  9.7109777223243532e-01
2.438438438438439e+00  2.3915713721486362e-01  9.7053039286197607e-01  2.8715005837434047e-02 -7.0759232700973937e-03  2.8715005837434047e-02 -7.0759232700973937e-03  2.3915713721486362e-01  9.7053039286197607e-01
2.439939939939940e+00  2.4144208955192703e-01  9.6995989985260589e-01  2.8843733128643197e-02 -7.1797722752414955e-03  2.8843733128643197e-02 -7.1797722752414955e-03  2.4144208955192703e-01  9.6995989985260589e-01
2.441441441441442e+00  2.4371651238480441e-01  9.6938634744268459e-01  2.8970999677498891e-02 -7.2836913995415944e-03  2.8970999677498891e-02 -7.2836913995415944e-03  2.4371651238480441e-01  9.6938634744268459e-01
2.442942942942943e+00  2.4598046681171565e-01  9.6880978913448035e-01  2.9096816549994318e-02 -7.3876715511892541e-03  2.9096816549994318e-02 -7.3876715511892541e-03  2.4598046681171565e-01  9.6880978913448035e-01
2.444444444444445e+00  2.4823401355675029e-01  9.6823027770449543e-01  2.9221194770743038e-02 -7.4917038083773934e-03  2.9221194770743038e-02 -7.4917038083773934e-03  2.4823401355675029e-01  9.6823027770449543e-01
2.445945945945946e+00  2.5047721297131520e-01  9.6764786521363122e-01  2.9344145321940979e-02 -7.5957794167636969e-03  2.9344145321940979e-02 -7.5957794167636969e-03  2.5047721297131520e-01  9.6764786521363122e-01
2.447447447447448e+00  2.5271012503562940e-01  9.6706260301721036e-01  2.9465679142372726e-02 -7.6998897869657683e-03  2.9465679142372726e-02 -7.6998897869657683e-03  2.5271012503562940e-01  9.6706260301721036e-01
2.448948948948949e+00  2.5493280936022350e-01  9.6647454177484160e-01  2.9585807126459373e-02 -7.8040264920864796e-03  2.9585807126459373e-02 -7.8040264920864796e-03  2.5493280936022350e-01  9.6647454177484160e-01
2.450450450450451e+00  2.5714532518747746e-01  9.6588373146013839e-01  2.9704540123348097e-02 -7.9081812652706928e-03  2.9704540123348097e-02 -7.9081812652706928e-03  2.5714532518747746e-01  9.6588373146013839e-01
2.451951951951952e+00  2.5934773139316680e-01  9.6529022137030041e-01  2.9821888936040986e-02 -8.0123459972917671e-03  2.9821888936040986e-02 -8.0123459972917671e-03  2.5934773139316680e-01  9.6529022137030041e-01
2.453453453453454e+00  2.6154008648803473e-01  9.6469406013553849e-01  2.9937864320563095e-02 -8.1165127341688258e-03  2.9937864320563095e-02 -8.1165127341688258e-03  2.6154008648803473e-01  9.6469406013553849e-01
2.454954954954955e+00  2.6372244861938671e-01  9.6409529572837460e-01  3.0052476985168153e-02 -8.2206736748140392e-03  3.0052476985168153e-02 -8.2206736748140392e-03  2.6372244861938671e-01  9.6409529572837460e-01
2.456456456456456e+00  2.6589487557269442e-01  9.6349397547279236e-01  3.0165737589580726e-02 -8.3248211687096518e-03  3.0165737589580726e-02 -8.3248211687096518e-03  2.6589487557269442e-01  9.6349397547279236e-01
2.457957957957958e+00  2.6805742477323097e-01  9.6289014605325540e-01  3.0277656744274385e-02 -8.4289477136150412e-03  3.0277656744274385e-02 -8.4289477136150412e-03  2.6805742477323097e-01  9.6289014605325540e-01
2.459459459459460e+00  2.7021015328770198e-01  9.6228385352359502e-01  3.0388245009783627e-02 -8.5330459533025284e-03  3.0388245009783627e-02 -8.5330459533025284e-03  2.7021015328770198e-01  9.6228385352359502e-01
2.460960960960961e+00  2.7235311782591692e-01  9.6167514331575987e-01  3.0497512896050703e-02 -8.6371086753235012e-03  3.0497512896050703e-02 -8.6371086753235012e-03  2.7235311782591692e-01  9.6167514331575987e-01
2.462462462462462e+00  2.7448637474245458e-01  9.6106406024844115e-01  3.0605470861803721e-02 -8.7411288088024737e-03  3.0605470861803721e-02 -8.7411288088024737e-03  2.7448637474245458e-01  9.6106406024844115e-01
2.463963963963964e+00  2.7660998003835241e-01  9.6045064853556839e-01  3.0712129313967371e-02 -8.8450994222606383e-03  3.0712129313967371e-02 -8.8450994222606383e-03  2.7660998003835241e-01  9.6045064853556839e-01
2.465465465465466e+00  2.7872398936280784e-01  9.5983495179467937e-01  3.0817498607104119e-02 -8.9490137214676638e-03  3.0817498607104119e-02 -8.9490137214676638e-03  2.7872398936280784e-01  9.5983495179467937e-01
2.466966966966967e+00  2.8082845801489104e-01  9.5921701305516649e-01  3.0921589042885257e-02 -9.0528650473218862e-03  3.0921589042885257e-02 -9.0528650473218862e-03  2.8082845801489104e-01  9.5921701305516649e-01
2.468468468468469e+00  2.8292344094526872e-01  9.5859687476640165e-01  3.1024410869591144e-02 -9.1566468737585872e-03  3.1024410869591144e-02 -9.1566468737585872e-03  2.8292344094526872e-01  9.5859687476640165e-01
2.469969969969970e+00  2.8500899275793423e-01  9.5797457880574277e-01  3.1125974281639303e-02 -9.2603528056857537e-03  3.1125974281639303e-02 -9.2603528056857537e-03  2.8500899275793423e-01  9.5797457880574277e-01
2.471471471471472e+00  2.8708516771196296e-01  9.5735016648641758e-01  3.1226289419140470e-02 -9.3639765769481624e-03  3.1226289419140470e-02 -9.3639765769481624e-03  2.8708516771196296e-01  9.5735016648641758e-01
2.472972972972973e+00  2.8915201972325560e-01  9.5672367856529983e-01  3.1325366367480442e-02 -9.4675120483178124e-03  3.1325366367480442e-02 -9.4675120483178124e-03  2.8915201972325560e-01  9.5672367856529983e-01
2.474474474474475e+00  2.9120960236630944e-01  9.5609515525056099e-01  3.1423215156928488e-02 -9.5709532055123017e-03  3.1423215156928488e-02 -9.5709532055123017e-03  2.9120960236630944e-01  9.5609515525056099e-01
2.475975975975976e+00  2.9325796887598293e-01  9.5546463620921840e-01  3.1519845762270050e-02 -9.6742941572392563e-03  3.1519845762270050e-02 -9.6742941572392563e-03  2.9325796887598293e-01  9.5546463620921840e-01
2.477477477477477e+00  2.9529717214927764e-01  9.5483216057456732e-01  3.1615268102464109e-02 -9.7775291332678343e-03  3.1615268102464109e-02 -9.7775291332678343e-03  2.9529717214927764e-01  9.5483216057456732e-01
2.478978978978979e+00  2.9732726474712123e-01  9.5419776695350633e-01  3.1709492040324118e-02 -9.8806524825262657e-03  3.1709492040324118e-02 -9.8806524825262657e-03  2.9732726474712123e-01  9.5419776695350633e-01
2.480480480480480e+00  2.9934829889616027e-01  9.5356149343375529e-01  3.1802527382221536e-02 -9.9836586712254167e-03  3.1802527382221536e-02 -9.9836586712254167e-03  2.9934829889616027e-01  9.5356149343375529e-01
2.481981981981982e+00  3.0136032649055683e-01  9.5292337759096457e-01  3.1894383877811856e-02 -1.0086542281008335e-02  3.1894383877811856e-02 -1.0086542281008335e-02  3.0136032649055683e-01  9.5292337759096457e-01
2.483483483483484e+00  3.0336339909378723e-01  9.5228345649572743e-01  3.1985071219781454e-02 -1.0189298007124733e-02  3.1985071219781454e-02 -1.0189298007124733e-02  3.0336339909378723e-01  9.5228345649572743e-01
2.484984984984985e+00  3.0535756794045299e-01  9.5164176672048140e-01  3.2074599043616245e-02 -1.0291920656631520e-02  3.2074599043616245e-02 -1.0291920656631520e-02  3.0535756794045299e-01  9.5164176672048140e-01
2.486486486486486e+00  3.0734288393808695e-01  9.5099834434631658e-01  3.2162976927389564e-02 -1.0394405146617488e-02  3.2162976927389564e-02 -1.0394405146617488e-02  3.0734288393808695e-01  9.5099834434631658e-01
2.487987987987988e+00  3.0931939766896804e-01  9.5035322496967811e-01  3.2250214391570185e-02 -1.0496746502453186e-02  3.2250214391570185e-02 -1.0496746502453186e-02  3.0931939766896804e-01  9.5035322496967811e-01
2.489489489489490e+00  3.1128715939193785e-01  9.4970644370897672e-01  3.2336320898849163e-02 -1.0598939856065095e-02  3.2336320898849163e-02 -1.0598939856065095e-02  3.1128715939193785e-01  9.4970644370897672e-01
2.490990990990991e+00  3.1324621904422167e-01  9.4905803521109977e-01  3.2421305853985061e-02 -1.0700980444233985e-02  3.2421305853985061e-02 -1.0700980444233985e-02  3.1324621904422167e-01  9.4905803521109977e-01
2.492492492492493e+00  3.1519662624324640e-01  9.4840803365782800e-01  3.2505178603666932e-02 -1.0802863606917115e-02  3.2505178603666932e-02 -1.0802863606917115e-02  3.1519662624324640e-01  9.4840803365782800e-01
2.493993993993994e+00  3.1713843028846361e-01  9.4775647277216202e-01  3.2587948436394454e-02 -1.0904584785593974e-02  3.2587948436394454e-02 -1.0904584785593974e-02  3.1713843028846361e-01  9.4775647277216202e-01
2.495495495495496e+00  3.1907168016317677e-01  9.4710338582454823e-01  3.2669624582375247e-02 -1.1006139521635856e-02  3.2669624582375247e-02 -1.1006139521635856e-02  3.1907168016317677e-01  9.4710338582454823e-01
2.496996996996997e+00  3.2099642453635924e-01  9.4644880563903144e-01  3.2750216213437565e-02 -1.1107523454697690e-02  3.2750216213437565e-02 -1.1107523454697690e-02  3.2099642453635924e-01  9.4644880563903144e-01
2.498498498498499e+00  3.2291271176448655e-01  9.4579276459929718e-01  3.2829732442959489e-02 -1.1208732321133752e-02  3.2829732442959489e-02 -1.1208732321133752e-02  3.2291271176448655e-01  9.4579276459929718e-01
2.500000000000000e+00  3.2482058989335583e-01  9.4513529465464452e-01  3.2908182325812711e-02 -1.1309761952435049e-02  3.2908182325812711e-02 -1.1309761952435049e-02  3.2482058989335583e-01  9.4513529465464452e-01
